Al2 N2                                  
   1.0000000000000000     
     9.2872018813999997    0.0000000000000000    0.0000000000000000
    -4.6436029654000004    8.0429537929000006    0.0000000000000000
     0.0000000000000000    0.0000000000000000    9.9090690613000003
   Si   Al   N 
     2    33    36
Direct
  0.1092631830900815  0.2260976643714455  0.5027651242083500
  0.1092631830900815  0.5498324957186417  0.5027651242083500
  0.1112857384813697  0.2236628241830932  0.0026278173260538
  0.1112857384813697  0.5542898912982820  0.0026278173260538
  0.1084902734092213  0.8875786552046085  0.5027500103295169
  0.1116178249925724  0.8891424309962843  0.0031040592172233
  0.4444636861920824  0.2279373722369625  0.5045246992282251
  0.4445715863537605  0.2227460059905227  0.0017965961935230
  0.4441932235677399  0.5554300892838716 -0.0034129209790257
  0.4444636861920824  0.8831933279551175  0.5045246992282251
  0.4445715863537605  0.8884925943632357  0.0017965961935230
  0.7764211487821236  0.2215440663910630  0.5013344848314534
  0.7779819940101987  0.2223244890051006  0.0034286240503569
  0.7761509497260136  0.5578346745099980  0.5035273964017480
  0.7782492086775309  0.5554154304464035  0.0016703732050611
  0.7761509497260135  0.8849832602160143  0.5035273964017480
  0.7782492086775309  0.8895007632311263  0.0016703732050611
  0.2224311248906924  0.1138438829251048  0.2507863373864239
  0.2229820834299360  0.1112444019553063  0.7514292542743214
  0.2243493103736109  0.4455078201868045  0.2564655402650410
  0.2269490194366021  0.4468076747183002  0.7462902911049751
  0.2224311248906924  0.7752535789655828  0.2507863373864239
  0.2229820834299360  0.7784040184746249  0.7514292542743214
  0.5531831343520033  0.1099247391759978  0.2529806829357460
  0.5550592890353951  0.1108628165176938  0.7526320453774932
  0.5553906429779304  0.4460007233885205  0.2536957030057183
  0.5558268485682405  0.4460970313653217  0.7501277106198984
  0.5553906429779304  0.7760562785894066  0.2536957030057183
  0.5558268485682405  0.7763961762029153  0.7501277106198984
  0.8900744222738909  0.1107165501034043  0.2529821940134218
  0.8871132090560997  0.1103487840737244  0.7514262880967154
  0.8900744222738909  0.4460241791704863  0.2529821940134218
  0.8871132090560997  0.4434307319823753  0.7514262880967154
  0.8885000580755060  0.7775831935377540  0.2516985339326306
  0.8889430057498640  0.7778046673749326  0.7533817767462956
  0.1115544565649498  0.2236010278017831  0.1928564900957014
  0.1101846589977092  0.2218167469322015  0.6825133394593234
  0.1115544565649498  0.5546204057631721  0.1928564900957014
  0.1101846589977092  0.5550348890655130  0.6825133394593234
  0.1132665156997127  0.8899667763498542  0.1959900769985790
  0.1117895789471625  0.8892283079735792  0.6923342119328446
  0.4428327777879073  0.2212448915570637  0.1925120653863727
  0.4438124036776047  0.2215224934124414  0.6942927093819290
  0.4428481524264639  0.5547575537132337  0.1908431425544118
  0.4464205728323487  0.5565437639161764  0.7102070244966995
  0.4428327777879073  0.8882549002308416  0.1925120653863727
  0.4438124036776047  0.8889569242651614  0.6942927093819290
  0.7780009505012601  0.2223339672506314  0.1967529926550489
  0.7774505440045580  0.2220587640022801  0.6917348418425013
  0.7798571315229507  0.5562724515339935  0.1921899648289563
  0.7800449676622744  0.5567426143696225  0.6940057589369237
  0.7798571315229507  0.8902516649889564  0.1921899648289563
  0.7800449676622744  0.8899693382926512  0.6940057589369237
  0.2148049809018436  0.1190200171269114  0.4464840104708622
  0.2208363458947010  0.1113770744206650  0.9418029935121007
  0.1903300597404002  0.4284981948701992  0.4454715957475224
  0.2184751343829765  0.4425707321914872  0.9388723103052302
  0.2148049809018436  0.7624513007749274  0.4464840104708622
  0.2208363458947010  0.7761256084740310  0.9418029935121007
  0.5510800689923699  0.1088732064961812  0.4443930426237994
  0.5561097359173107  0.1113880399586515  0.9436978114074021
  0.5676879666353143  0.4349569276011598  0.4375891537100385
  0.5573523421107666  0.4433328313088499  0.9436882467789260
  0.5676879666353143  0.7993973980341516  0.4375891537100385
  0.5573523421107666  0.7806858698019136  0.9436882467789260
  0.8996173220539925  0.1146660913375280  0.4475988220218249
  0.8901611394624591  0.1126222623423933  0.9418061224852186
  0.8996173220539925  0.4516175377164642  0.4475988220218249
  0.8901611394624591  0.4442051841200654  0.9418061224852186
  0.8907840410899202  0.7787251850449611  0.4425465525372910
  0.8902134287004146  0.7784398788502082  0.9438320840317339