Al2 N2                                  
   1.0000000000000000     
     9.2872018813999997    0.0000000000000000    0.0000000000000000
    -4.6436029654000004    8.0429537929000006    0.0000000000000000
     0.0000000000000000    0.0000000000000000    9.9090690613000003
   Si   Al   N 
     2    33    36
Direct
  0.1091733275806146  0.2260094253285178  0.5000351865134595
  0.1091733275806146  0.5498308792521025  0.5000351865134595
  0.1112550310811163  0.2233519345131796  0.0000023125965473
  0.1112550310811163  0.5545700735679425  0.0000023125965473
  0.1086795910220541  0.8876733140110254  0.5001614625716944
  0.1115783683055577  0.8891227026527769  0.0002398719424941
  0.4445031787622294  0.2279281893721501  0.5016837590542763
  0.4447243263728468  0.2227397712983649  0.9994933219829174
  0.4440052047505296  0.5553360798752666  0.9937866696678292
  0.4445031787622294  0.8832420033900770  0.5016837590542763
  0.4447243263728468  0.8886515690744797  0.9994933219829174
  0.7765220395066537  0.2215945117533281  0.4990177935610047
  0.7782838651640420  0.2224754245820222  0.0005375448110759
  0.7763138528578439  0.5579605325181304  0.5009523932675025
  0.7780033831165784  0.5552199233720934  0.9993885558437429
  0.7763138528578439  0.8850203053397130  0.5009523932675025
  0.7780033831165784  0.8894504447444838  0.9993885558437429
  0.2223439694250006  0.1135606489502927  0.2481068652446804
  0.2230785145113513  0.1111974502125439  0.7487894758573821
  0.2242962668142881  0.4454812984071431  0.2538767361834244
  0.2270169461241546  0.4468416380620764  0.7434517804986531
  0.2223439694250006  0.7754496574747032  0.2481068652446804
  0.2230785145113513  0.7785474012988025  0.7487894758573821
  0.5535753385999589  0.1101208412999756  0.2503088635887930
  0.5549124651125951  0.1107894045562936  0.7499606189317122
  0.5551356113875240  0.4459539854003761  0.2512917792887234
  0.5557761992578328  0.4458675483079336  0.7472001195314579
  0.5551356113875240  0.7758479849871448  0.2512917792887234
  0.5557761992578328  0.7765750099498963  0.7472001195314579
  0.8901473574664723  0.1107024097450715  0.2502081033220239
  0.8873579933770929  0.1103904332601006  0.7487771650920028
  0.8901473574664723  0.4461112547214007  0.2502081033220239
  0.8873579933770929  0.4436338671169923  0.7487771650920028
  0.8882864897831606  0.7774764093915812  0.2490503248170678
  0.8887421764481314  0.7777042527240664  0.7511043946757002
  0.1115953040809268  0.2235075682707535  0.1902996208020888
  0.1103343986994944  0.2218547823080439  0.6797808302695033
  0.1115953040809268  0.5547547128101790  0.1902996208020888
  0.1103343986994944  0.5551465933914560  0.6797808302695033
  0.1130482281964861  0.8898576325982410  0.1932405748541123
  0.1116923905813983  0.8891797137906976  0.6897801538042542
  0.4428705305749165  0.2212052572516320  0.1900857955832220
  0.4437711641752350  0.2213566808408551  0.6914769041109784
  0.4426445532408660  0.5546557541204348  0.1882023799796531
  0.4466081359562566  0.5566375454781299  0.7076040064455196
  0.4428705305749165  0.8883322873232826  0.1900857955832220
  0.4437711641752350  0.8890814973343778  0.6914769041109784
  0.7783102301061732  0.2224886070530879  0.1939438514983950
  0.7776293428795844  0.2221481634397934  0.6892951740086100
  0.7795768539728098  0.5561337212245852  0.1897051301780839
  0.7800872726769998  0.5567725258756744  0.6914365308394146
  0.7795768539728098  0.8901101177482243  0.1897051301780839
  0.7800872726769998  0.8899817318013244  0.6914365308394146
  0.2148228037006609  0.1190095151771931  0.4437338750942996
  0.2210345820054633  0.1113704505359125  0.9391719979505646
  0.1900332608745272  0.4283497954372628  0.4427919973302756
  0.2181988166041208  0.4424325733020595  0.9360930667513220
  0.2148228037006609  0.7624796255234630  0.4437338750942996
  0.2210345820054633  0.7763304684695460  0.9391719979505646
  0.5512855796618065  0.1089759618308994  0.4417226891284144
  0.5562393385693980  0.1114528412846951  0.9411201326023280
  0.5677372446388848  0.4351171464404015  0.4351705071437861
  0.5572110662420483  0.4431527381928619  0.9409776191494410
  0.5677372446388848  0.7992864571984801  0.4351705071437861
  0.5572110662420483  0.7807246870491841  0.9409776191494410
  0.8995369211140584  0.1145947564702666  0.4449454234648715
  0.8901694764628353  0.1123895600543551  0.9392030528896239
  0.8995369211140584  0.4516084716437918  0.4449454234648715
  0.8901694764628353  0.4444462234084801  0.9392030528896239
  0.8908880161055429  0.7787771725527725  0.4398850834517684
  0.8899580475109761  0.7783121882554888  0.9414855557547447