20.0% N(Distort)=2 ~[0.1,0.2,0.5]       
   1.0000000000000000     
     9.2872018813999997    0.0000000000000000    0.0000000000000000
    -4.6436029654000004    8.0429537929000006    0.0000000000000000
     0.0000000000000000    0.0000000000000000    9.9090690613000003
   Al   Si   N 
    35     1    36
Direct
  0.1136273269073411  0.2253728779004016  0.9971888280689220
  0.1125209912780177  0.5587010871166407  0.4981943921052479
  0.1136864909255290  0.5585244853474317  0.9974673802930876
  0.1123866080124145  0.8912884391773105  0.4983325108557935
  0.1134927063930486  0.8920922047194625  0.9974437359225418
  0.4479444128868544  0.2268217400469490  0.4983147767725453
  0.4468685127601276  0.2254737005954781  0.9974378150737376
  0.4481273881260633  0.5586559401591246  0.4981957989268435
  0.4469947283629094  0.5584935767726925  0.9974141516623544
  0.4470425734795704  0.8922814330698360  0.4984969409133523
  0.4469970237403552  0.8921083192517030  0.9972654062598675
  0.7806429810528251  0.2268285228367819  0.4982072995429588
  0.7805186948512123  0.2254074781096345  0.9974573085747910
  0.7804302192349950  0.5588479087417974  0.4977874307685639
  0.7803661381874399  0.5585883516363360  0.9977425819583825
  0.7806069718849481  0.8911693375106116  0.4981564000811420
  0.7804764042858986  0.8920498845772824  0.9973897037919851
  0.2240571447466573  0.1150424809642735  0.2463145255851359
  0.2257223762190853  0.1134589457739502  0.7467840442501993
  0.2241745818874335  0.4463513605042301  0.2462984465491243
  0.2260109199976059  0.4497299644917692  0.7467015981302466
  0.2252228671042943  0.7813353173992067  0.2470908980015011
  0.2250989654392278  0.7812008738078389  0.7478767218602773
  0.5578445488298870  0.1139149907713737  0.2470257851395316
  0.5582451878128942  0.1143688307608374  0.7478624587026916
  0.5582389409337498  0.4477891011422761  0.2472773969990048
  0.5587057778009655  0.4479526131310513  0.7482396304624660
  0.5577377065792894  0.7813125734810311  0.2469601812805567
  0.5582124531973059  0.7811817047466859  0.7478049131775816
  0.8927917889440480  0.1150467488449073  0.2462559831261946
  0.8896439838024716  0.1134128601881896  0.7466714340948047
  0.8914249629774342  0.4477778486184469  0.2472566447438351
  0.8916544302977628  0.4478928756564505  0.7482653842428382
  0.8913268253007407  0.7808727267473963  0.2472262528653485
  0.8914202973263134  0.7807077978808007  0.7482164691165817
  0.1136606611205944  0.2256160519177665  0.4984120634300722
  0.1136659419915022  0.2255045659855452  0.1870839986090654
  0.1137765596035014  0.2255940374017688  0.6774160161537478
  0.1141757866669229  0.5583775896457017  0.1890484987437612
  0.1137820748289183  0.5587173394859367  0.6882140643652176
  0.1140176967081091  0.8930626274185637  0.1889939757903526
  0.1135962818287146  0.8922864623813200  0.6883099479162880
  0.4460573105281375  0.2251108591462905  0.1890012246041044
  0.4470282822412603  0.2257477477232058  0.6883251767760877
  0.4461325808169119  0.5583619786751686  0.1889656572114753
  0.4472298331272535  0.5586841166040032  0.6882027285855883
  0.4469382294143888  0.8922360271780235  0.1878899247005717
  0.4471928978763420  0.8922985287167572  0.6890931692387734
  0.7808307103912200  0.2250786586488398  0.1890232537832383
  0.7807697036981500  0.2257445715579707  0.6882096421791934
  0.7803458070733861  0.5587848436694489  0.1884842137053171
  0.7806146307256647  0.5588075523428241  0.6885752741362199
  0.7807685724577239  0.8930464857913420  0.1889626540361995
  0.7807291380884700  0.8922101350689802  0.6881688525793805
  0.2181267881965325  0.1211581514732097  0.4413916652952175
  0.2242388404548489  0.1147671419996131  0.9369823311968309
  0.2182388097607604  0.4345667254348018  0.4413530098750005
  0.2243960512677805  0.4466127875760235  0.9369141033608424
  0.2249630335971276  0.7813321065804983  0.4379936247339826
  0.2245304808536235  0.7808417609948640  0.9387457499000621
  0.5580465417595317  0.1143804677175114  0.4379592334597601
  0.5582964079619311  0.1146179736767309  0.9387450008630369
  0.5580393122062631  0.4477115225090782  0.4380895197922188
  0.5582160870613875  0.4476075435081633  0.9389251599362279
  0.5580387045727352  0.7812341496599605  0.4378730972822047
  0.5582309471351603  0.7808150479420348  0.9387043564896056
  0.9047568778937771  0.1211061664272631  0.4413288817796531
  0.8924359204835455  0.1147135955427092  0.9369048639328182
  0.8916556599585984  0.4477149790870149  0.4380535296787791
  0.8915970410771790  0.4475614261267241  0.9389770203328817
  0.8915652699262492  0.7812548850087296  0.4380601382834834
  0.8914000609292814  0.7808372266349873  0.9389183682340259

  0.00000000E+00  0.00000000E+00  0.00000000E+00
  0.00000000E+00  0.00000000E+00  0.00000000E+00
  0.00000000E+00  0.00000000E+00  0.00000000E+00
  0.00000000E+00  0.00000000E+00  0.00000000E+00
  0.00000000E+00  0.00000000E+00  0.00000000E+00
  0.00000000E+00  0.00000000E+00  0.00000000E+00
  0.00000000E+00  0.00000000E+00  0.00000000E+00
  0.00000000E+00  0.00000000E+00  0.00000000E+00
  0.00000000E+00  0.00000000E+00  0.00000000E+00
  0.00000000E+00  0.00000000E+00  0.00000000E+00
  0.00000000E+00  0.00000000E+00  0.00000000E+00
  0.00000000E+00  0.00000000E+00  0.00000000E+00
  0.00000000E+00  0.00000000E+00  0.00000000E+00
  0.00000000E+00  0.00000000E+00  0.00000000E+00
  0.00000000E+00  0.00000000E+00  0.00000000E+00
  0.00000000E+00  0.00000000E+00  0.00000000E+00
  0.00000000E+00  0.00000000E+00  0.00000000E+00
  0.00000000E+00  0.00000000E+00  0.00000000E+00
  0.00000000E+00  0.00000000E+00  0.00000000E+00
  0.00000000E+00  0.00000000E+00  0.00000000E+00
  0.00000000E+00  0.00000000E+00  0.00000000E+00
  0.00000000E+00  0.00000000E+00  0.00000000E+00
  0.00000000E+00  0.00000000E+00  0.00000000E+00
  0.00000000E+00  0.00000000E+00  0.00000000E+00
  0.00000000E+00  0.00000000E+00  0.00000000E+00
  0.00000000E+00  0.00000000E+00  0.00000000E+00
  0.00000000E+00  0.00000000E+00  0.00000000E+00
  0.00000000E+00  0.00000000E+00  0.00000000E+00
  0.00000000E+00  0.00000000E+00  0.00000000E+00
  0.00000000E+00  0.00000000E+00  0.00000000E+00
  0.00000000E+00  0.00000000E+00  0.00000000E+00
  0.00000000E+00  0.00000000E+00  0.00000000E+00
  0.00000000E+00  0.00000000E+00  0.00000000E+00
  0.00000000E+00  0.00000000E+00  0.00000000E+00
  0.00000000E+00  0.00000000E+00  0.00000000E+00
  0.00000000E+00  0.00000000E+00  0.00000000E+00
  0.00000000E+00  0.00000000E+00  0.00000000E+00
  0.00000000E+00  0.00000000E+00  0.00000000E+00
  0.00000000E+00  0.00000000E+00  0.00000000E+00
  0.00000000E+00  0.00000000E+00  0.00000000E+00
  0.00000000E+00  0.00000000E+00  0.00000000E+00
  0.00000000E+00  0.00000000E+00  0.00000000E+00
  0.00000000E+00  0.00000000E+00  0.00000000E+00
  0.00000000E+00  0.00000000E+00  0.00000000E+00
  0.00000000E+00  0.00000000E+00  0.00000000E+00
  0.00000000E+00  0.00000000E+00  0.00000000E+00
  0.00000000E+00  0.00000000E+00  0.00000000E+00
  0.00000000E+00  0.00000000E+00  0.00000000E+00
  0.00000000E+00  0.00000000E+00  0.00000000E+00
  0.00000000E+00  0.00000000E+00  0.00000000E+00
  0.00000000E+00  0.00000000E+00  0.00000000E+00
  0.00000000E+00  0.00000000E+00  0.00000000E+00
  0.00000000E+00  0.00000000E+00  0.00000000E+00
  0.00000000E+00  0.00000000E+00  0.00000000E+00
  0.00000000E+00  0.00000000E+00  0.00000000E+00
  0.00000000E+00  0.00000000E+00  0.00000000E+00
  0.00000000E+00  0.00000000E+00  0.00000000E+00
  0.00000000E+00  0.00000000E+00  0.00000000E+00
  0.00000000E+00  0.00000000E+00  0.00000000E+00
  0.00000000E+00  0.00000000E+00  0.00000000E+00
  0.00000000E+00  0.00000000E+00  0.00000000E+00
  0.00000000E+00  0.00000000E+00  0.00000000E+00
  0.00000000E+00  0.00000000E+00  0.00000000E+00
  0.00000000E+00  0.00000000E+00  0.00000000E+00
  0.00000000E+00  0.00000000E+00  0.00000000E+00
  0.00000000E+00  0.00000000E+00  0.00000000E+00
  0.00000000E+00  0.00000000E+00  0.00000000E+00
  0.00000000E+00  0.00000000E+00  0.00000000E+00
  0.00000000E+00  0.00000000E+00  0.00000000E+00
  0.00000000E+00  0.00000000E+00  0.00000000E+00
  0.00000000E+00  0.00000000E+00  0.00000000E+00
  0.00000000E+00  0.00000000E+00  0.00000000E+00
