20.0% N(Distort)=2 ~[0.1,0.2,0.5]       
   1.0000000000000000     
     9.2872018813999997    0.0000000000000000    0.0000000000000000
    -4.6436029654000004    8.0429537929000006    0.0000000000000000
     0.0000000000000000    0.0000000000000000    9.9090690613000003
   Al   Si   N 
    35     1    36
Direct
  0.1148784818339900  0.2242018596322688  0.9962851331193279
  0.1002389214205039  0.5387618325826100  0.5025934541157115
  0.1141833491346786  0.5597842336113433  0.9968004977314869
  0.1164235239350531  0.8926626304377829  0.4959240351868114
  0.1145069447177239  0.8931024165176125  0.9980867761321298
  0.4465563104192111  0.2227207366989043  0.4959626102893003
  0.4459623334776422  0.2245327425883395  0.9981251734398203
  0.4488693013173297  0.5565476723488281  0.4961829236712594
  0.4480207473354665  0.5590561154986706  0.9961779700259169
  0.4475954186611974  0.8920256656430247  0.4969916302217915
  0.4469442836405365  0.8923298586354017 -0.0003793097105837
  0.8009192773083635  0.2393794897718254  0.5027156396497380
  0.7795369166200994  0.2249882327451681  0.9967952806561351
  0.7791193284999651  0.5599147175810940  0.4960196454664432
  0.7796868060295142  0.5593004723306145  0.9958709198629127
  0.7827109845235094  0.8903303748470937  0.4961988283707134
  0.7799567361790986  0.8908008785014493  0.9961814333013398
  0.2252333233785149  0.1142444457352083  0.2546389246476805
  0.2255382108929188  0.1131898856309317  0.7417411600227121
  0.2266224722365886  0.4454956069428564  0.2432056502179812
  0.2242367420200747  0.4503334619736160  0.7491036792333672
  0.2242401301805777  0.7787637380860033  0.2513266285310709
  0.2258300679794887  0.7835701116635720  0.7482742268974163
  0.5611440510830322  0.1155994236369108  0.2512610952418534
  0.5556473630713361  0.1133400581878801  0.7482314702116659
  0.5586423576147568  0.4471611263381813  0.2473047875780990
  0.5576437614430996  0.4465329674527708  0.7461960617121061
  0.5587788173507696  0.7805255769727044  0.2476802551958037
  0.5576139179118114  0.7811789753908877  0.7459493017552360
  0.8940742527922653  0.1126939890923316  0.2432098053315322
  0.8887222618496214  0.1146599173385825  0.7491752629808820
  0.8907199918393098  0.4488774123327877  0.2438505076878880
  0.8916122050057890  0.4476385783018690  0.7491185116357539
  0.8920738611197373  0.7806366907416581  0.2473417304444814
  0.8921569094571814  0.7811139386263610  0.7460941530558166
  0.0746170693841813  0.2646167875762103  0.5164117646844519
  0.1155160953808605  0.2240362129803226  0.1849030910175252
  0.1138751192195054  0.2251069024269186  0.6865159363563701
  0.1148309617318110  0.5578255484801344  0.1869457764092934
  0.1148685372790859  0.5634638084641399  0.6955299580986725
  0.1142401224346823  0.8914719871815884  0.1886967931254784
  0.1130578772155652  0.8911006113656466  0.6882015369686895
  0.4480220359043772  0.2251463440217324  0.1886656784320376
  0.4477659012583052  0.2257413539637483  0.6882119808339332
  0.4490949153076564  0.5595666320526862  0.1858021930853882
  0.4459425732761909  0.5580771049386698  0.6878543564971649
  0.4476483411915174  0.8920526547063359  0.1905998416070185
  0.4470386621218362  0.8921660167670682  0.6888065591395651
  0.7821089288444883  0.2248290048115381  0.1869206959538491
  0.7757917529630137  0.2242989687913884  0.6955965100930607
  0.7794560170764163  0.5598693826463553  0.1847155900445483
  0.7800664676534388  0.5587882005128623  0.6882158496573879
  0.7797957031857365  0.8902585459425688  0.1858092349006652
  0.7808023313188347  0.8929736329566048  0.6878700183159755
  0.2288922037314173  0.1103492946520687  0.4400015176320954
  0.2249982700731673  0.1140708676585344  0.9348112833432585
  0.2332373349777467  0.4434815687938293  0.4314542013659315
  0.2251095177939217  0.4472048856851626  0.9385391267630369
  0.2228589390223982  0.7720432479688691  0.4416051862568828
  0.2260283471026898  0.7826732339087963  0.9397531637123901
  0.5675799284522077  0.1167524288377297  0.4415505882793311
  0.5567054597913635  0.1133201702292705  0.9397583972683996
  0.5589783843987398  0.4471613617241089  0.4379563901851420
  0.5575193336784910  0.4469387733127745  0.9369270513041031
  0.5595671140187550  0.7796780110775450  0.4386668590668093
  0.5578104551191291  0.7811756940798827  0.9371224294143489
  0.8958394901329979  0.1059676606181773  0.4314263682793872
  0.8918553015297426  0.1137803016254400  0.9385610093631593
  0.8849346408093376  0.4546470679694380  0.4297245504579619
  0.8912064825017542  0.4480191216676513  0.9397269830578300
  0.8919854444091285  0.7801443428710058  0.4379466100027274
  0.8920630432789095  0.7813651720556453  0.9368802859858425

  0.00000000E+00  0.00000000E+00  0.00000000E+00
  0.00000000E+00  0.00000000E+00  0.00000000E+00
  0.00000000E+00  0.00000000E+00  0.00000000E+00
  0.00000000E+00  0.00000000E+00  0.00000000E+00
  0.00000000E+00  0.00000000E+00  0.00000000E+00
  0.00000000E+00  0.00000000E+00  0.00000000E+00
  0.00000000E+00  0.00000000E+00  0.00000000E+00
  0.00000000E+00  0.00000000E+00  0.00000000E+00
  0.00000000E+00  0.00000000E+00  0.00000000E+00
  0.00000000E+00  0.00000000E+00  0.00000000E+00
  0.00000000E+00  0.00000000E+00  0.00000000E+00
  0.00000000E+00  0.00000000E+00  0.00000000E+00
  0.00000000E+00  0.00000000E+00  0.00000000E+00
  0.00000000E+00  0.00000000E+00  0.00000000E+00
  0.00000000E+00  0.00000000E+00  0.00000000E+00
  0.00000000E+00  0.00000000E+00  0.00000000E+00
  0.00000000E+00  0.00000000E+00  0.00000000E+00
  0.00000000E+00  0.00000000E+00  0.00000000E+00
  0.00000000E+00  0.00000000E+00  0.00000000E+00
  0.00000000E+00  0.00000000E+00  0.00000000E+00
  0.00000000E+00  0.00000000E+00  0.00000000E+00
  0.00000000E+00  0.00000000E+00  0.00000000E+00
  0.00000000E+00  0.00000000E+00  0.00000000E+00
  0.00000000E+00  0.00000000E+00  0.00000000E+00
  0.00000000E+00  0.00000000E+00  0.00000000E+00
  0.00000000E+00  0.00000000E+00  0.00000000E+00
  0.00000000E+00  0.00000000E+00  0.00000000E+00
  0.00000000E+00  0.00000000E+00  0.00000000E+00
  0.00000000E+00  0.00000000E+00  0.00000000E+00
  0.00000000E+00  0.00000000E+00  0.00000000E+00
  0.00000000E+00  0.00000000E+00  0.00000000E+00
  0.00000000E+00  0.00000000E+00  0.00000000E+00
  0.00000000E+00  0.00000000E+00  0.00000000E+00
  0.00000000E+00  0.00000000E+00  0.00000000E+00
  0.00000000E+00  0.00000000E+00  0.00000000E+00
  0.00000000E+00  0.00000000E+00  0.00000000E+00
  0.00000000E+00  0.00000000E+00  0.00000000E+00
  0.00000000E+00  0.00000000E+00  0.00000000E+00
  0.00000000E+00  0.00000000E+00  0.00000000E+00
  0.00000000E+00  0.00000000E+00  0.00000000E+00
  0.00000000E+00  0.00000000E+00  0.00000000E+00
  0.00000000E+00  0.00000000E+00  0.00000000E+00
  0.00000000E+00  0.00000000E+00  0.00000000E+00
  0.00000000E+00  0.00000000E+00  0.00000000E+00
  0.00000000E+00  0.00000000E+00  0.00000000E+00
  0.00000000E+00  0.00000000E+00  0.00000000E+00
  0.00000000E+00  0.00000000E+00  0.00000000E+00
  0.00000000E+00  0.00000000E+00  0.00000000E+00
  0.00000000E+00  0.00000000E+00  0.00000000E+00
  0.00000000E+00  0.00000000E+00  0.00000000E+00
  0.00000000E+00  0.00000000E+00  0.00000000E+00
  0.00000000E+00  0.00000000E+00  0.00000000E+00
  0.00000000E+00  0.00000000E+00  0.00000000E+00
  0.00000000E+00  0.00000000E+00  0.00000000E+00
  0.00000000E+00  0.00000000E+00  0.00000000E+00
  0.00000000E+00  0.00000000E+00  0.00000000E+00
  0.00000000E+00  0.00000000E+00  0.00000000E+00
  0.00000000E+00  0.00000000E+00  0.00000000E+00
  0.00000000E+00  0.00000000E+00  0.00000000E+00
  0.00000000E+00  0.00000000E+00  0.00000000E+00
  0.00000000E+00  0.00000000E+00  0.00000000E+00
  0.00000000E+00  0.00000000E+00  0.00000000E+00
  0.00000000E+00  0.00000000E+00  0.00000000E+00
  0.00000000E+00  0.00000000E+00  0.00000000E+00
  0.00000000E+00  0.00000000E+00  0.00000000E+00
  0.00000000E+00  0.00000000E+00  0.00000000E+00
  0.00000000E+00  0.00000000E+00  0.00000000E+00
  0.00000000E+00  0.00000000E+00  0.00000000E+00
  0.00000000E+00  0.00000000E+00  0.00000000E+00
  0.00000000E+00  0.00000000E+00  0.00000000E+00
  0.00000000E+00  0.00000000E+00  0.00000000E+00
  0.00000000E+00  0.00000000E+00  0.00000000E+00

