20.0% N(Distort)=2 ~[0.1,0.2,0.5]       
   1.0000000000000000     
     9.2872018813999997    0.0000000000000000    0.0000000000000000
    -4.6436029654000004    8.0429537929000006    0.0000000000000000
     0.0000000000000000    0.0000000000000000    9.9090690613000003
   Al   Si   N 
    35     1    36
Direct
  0.1136027787037911  0.2253438969663618  0.9972438745456786
  0.1125546198642113  0.5587731415532428  0.4980692229108250
  0.1137618950778723  0.5585036533947298  0.9975016433979087
  0.1123829861931023  0.8912631379433719  0.4982925204928629
  0.1134794363916682  0.8921086326577138  0.9974655235298412
  0.4479335749318024  0.2268117282229928  0.4982483387854198
  0.4468167149575749  0.2254292030058331  0.9974653356609179
  0.4481860313586010  0.5586948306264317  0.4980967562009415
  0.4469759135888398  0.5584400624996274  0.9974125982083416
  0.4470306818480907  0.8922810261789683  0.4984623476070709
  0.4470175583839109  0.8921158629966146  0.9972692701852578
  0.7805600446934815  0.2267708905300275  0.4980910983428763
  0.7804935906288963  0.2253136882143093  0.9974953733269225
  0.7804411415341359  0.5588157059684341  0.4977677250070593
  0.7803548272738683  0.5585270160854947  0.9977317080669417
  0.7805446391586619  0.8910959772717992  0.4980429353850032
  0.7804440591924540  0.8920427074926938  0.9973768375839810
  0.2241172490773866  0.1149428250985217  0.2463137932236364
  0.2256194299303798  0.1135297164280454  0.7468878949431110
  0.2242267217430551  0.4464471034031588  0.2462785904408906
  0.2259478307276898  0.4495535143513917  0.7467727709012122
  0.2251722496147085  0.7813414154524103  0.2470344601302175
  0.2250557045741317  0.7811805620140509  0.7478939818388405
  0.5578108092978871  0.1139413731212608  0.2469675647947245
  0.5583329671688926  0.1144304623288328  0.7478869330538540
  0.5582173724701932  0.4478048794475453  0.2472361487244049
  0.5587162265661986  0.4479811045850199  0.7482141218607320
  0.5577079718511821  0.7813041332566366  0.2468650538819772
  0.5582512108974256  0.7811924051629826  0.7478239800953400
  0.8926890820950576  0.1149944136405791  0.2462278512007008
  0.8898008923122911  0.1134641121075167  0.7467300870144102
  0.8914453410518085  0.4478027192927609  0.2472155688859584
  0.8916845790157397  0.4478395307852180  0.7482351987188428
  0.8913023413105884  0.7808578693639688  0.2472070450955078
  0.8914090399248763  0.7806926862144308  0.7481786345675671
  0.1136379021089321  0.2256477506982173  0.4984800639429784
  0.1136671052867315  0.2254876010816251  0.1871812524524181
  0.1137599285756210  0.2255751038660611  0.6780576569164182
  0.1142322354343881  0.5584823133027923  0.1890766181257074
  0.1138575619596394  0.5587855897307299  0.6882053732486562
  0.1140068487170209  0.8930042584376210  0.1889751506500258
  0.1136137216749219  0.8923050832719684  0.6883388595730062
  0.4461066480456340  0.2251619905947075  0.1889903753831674
  0.4470555136060627  0.2257337444513526  0.6883644271783494
  0.4461570337819039  0.5584376833606738  0.1889721381281766
  0.4472381192856657  0.5587097282980868  0.6881642025967006
  0.4469166116799855  0.8922818854281100  0.1879134272021581
  0.4472131088460501  0.8923328795697923  0.6890752906013964
  0.7807752314426529  0.2250951033772254  0.1890450847995979
  0.7807683011412747  0.2257110489470687  0.6882058692707521
  0.7803321445465675  0.5587970267242828  0.1885192969501363
  0.7806729997006494  0.5588015055528788  0.6885935551820185
  0.7807036124333184  0.8930082052698535  0.1889640590536242
  0.7806985766182538  0.8921923431334076  0.6881239843739689
  0.2185104002877680  0.1208153229382662  0.4411843061218401
  0.2242149486512455  0.1147788410288292  0.9370818203316164
  0.2185877676947737  0.4353681370190595  0.4411593838956653
  0.2244402912556840  0.4465944962218157  0.9369953554820117
  0.2250166713085864  0.7813954673199152  0.4380060867882605
  0.2245254844104241  0.7808614040577566  0.9387938332209554
  0.5580236348036484  0.1143565644322149  0.4379510703878594
  0.5583085149176836  0.1146430383057315  0.9387956432022175
  0.5580898433267594  0.4477479244654130  0.4380601761345462
  0.5581887041267947  0.4475973130877207  0.9389431345832371
  0.5579966745442284  0.7812686073155699  0.4378388520524912
  0.5582401126883618  0.7808004512165033  0.9387462476263317
  0.9039428873112765  0.1207377269495181  0.4411436974564777
  0.8924449196770949  0.1146708620380473  0.9369755526827406
  0.8916752164666177  0.4477442108133400  0.4380127983307526
  0.8916680805431424  0.4475086797856958  0.9390320909990801
  0.8915723886977122  0.7812414800976389  0.4380158401077086
  0.8914022068426797  0.7808453798870952  0.9389358572284821

  0.00000000E+00  0.00000000E+00  0.00000000E+00
  0.00000000E+00  0.00000000E+00  0.00000000E+00
  0.00000000E+00  0.00000000E+00  0.00000000E+00
  0.00000000E+00  0.00000000E+00  0.00000000E+00
  0.00000000E+00  0.00000000E+00  0.00000000E+00
  0.00000000E+00  0.00000000E+00  0.00000000E+00
  0.00000000E+00  0.00000000E+00  0.00000000E+00
  0.00000000E+00  0.00000000E+00  0.00000000E+00
  0.00000000E+00  0.00000000E+00  0.00000000E+00
  0.00000000E+00  0.00000000E+00  0.00000000E+00
  0.00000000E+00  0.00000000E+00  0.00000000E+00
  0.00000000E+00  0.00000000E+00  0.00000000E+00
  0.00000000E+00  0.00000000E+00  0.00000000E+00
  0.00000000E+00  0.00000000E+00  0.00000000E+00
  0.00000000E+00  0.00000000E+00  0.00000000E+00
  0.00000000E+00  0.00000000E+00  0.00000000E+00
  0.00000000E+00  0.00000000E+00  0.00000000E+00
  0.00000000E+00  0.00000000E+00  0.00000000E+00
  0.00000000E+00  0.00000000E+00  0.00000000E+00
  0.00000000E+00  0.00000000E+00  0.00000000E+00
  0.00000000E+00  0.00000000E+00  0.00000000E+00
  0.00000000E+00  0.00000000E+00  0.00000000E+00
  0.00000000E+00  0.00000000E+00  0.00000000E+00
  0.00000000E+00  0.00000000E+00  0.00000000E+00
  0.00000000E+00  0.00000000E+00  0.00000000E+00
  0.00000000E+00  0.00000000E+00  0.00000000E+00
  0.00000000E+00  0.00000000E+00  0.00000000E+00
  0.00000000E+00  0.00000000E+00  0.00000000E+00
  0.00000000E+00  0.00000000E+00  0.00000000E+00
  0.00000000E+00  0.00000000E+00  0.00000000E+00
  0.00000000E+00  0.00000000E+00  0.00000000E+00
  0.00000000E+00  0.00000000E+00  0.00000000E+00
  0.00000000E+00  0.00000000E+00  0.00000000E+00
  0.00000000E+00  0.00000000E+00  0.00000000E+00
  0.00000000E+00  0.00000000E+00  0.00000000E+00
  0.00000000E+00  0.00000000E+00  0.00000000E+00
  0.00000000E+00  0.00000000E+00  0.00000000E+00
  0.00000000E+00  0.00000000E+00  0.00000000E+00
  0.00000000E+00  0.00000000E+00  0.00000000E+00
  0.00000000E+00  0.00000000E+00  0.00000000E+00
  0.00000000E+00  0.00000000E+00  0.00000000E+00
  0.00000000E+00  0.00000000E+00  0.00000000E+00
  0.00000000E+00  0.00000000E+00  0.00000000E+00
  0.00000000E+00  0.00000000E+00  0.00000000E+00
  0.00000000E+00  0.00000000E+00  0.00000000E+00
  0.00000000E+00  0.00000000E+00  0.00000000E+00
  0.00000000E+00  0.00000000E+00  0.00000000E+00
  0.00000000E+00  0.00000000E+00  0.00000000E+00
  0.00000000E+00  0.00000000E+00  0.00000000E+00
  0.00000000E+00  0.00000000E+00  0.00000000E+00
  0.00000000E+00  0.00000000E+00  0.00000000E+00
  0.00000000E+00  0.00000000E+00  0.00000000E+00
  0.00000000E+00  0.00000000E+00  0.00000000E+00
  0.00000000E+00  0.00000000E+00  0.00000000E+00
  0.00000000E+00  0.00000000E+00  0.00000000E+00
  0.00000000E+00  0.00000000E+00  0.00000000E+00
  0.00000000E+00  0.00000000E+00  0.00000000E+00
  0.00000000E+00  0.00000000E+00  0.00000000E+00
  0.00000000E+00  0.00000000E+00  0.00000000E+00
  0.00000000E+00  0.00000000E+00  0.00000000E+00
  0.00000000E+00  0.00000000E+00  0.00000000E+00
  0.00000000E+00  0.00000000E+00  0.00000000E+00
  0.00000000E+00  0.00000000E+00  0.00000000E+00
  0.00000000E+00  0.00000000E+00  0.00000000E+00
  0.00000000E+00  0.00000000E+00  0.00000000E+00
  0.00000000E+00  0.00000000E+00  0.00000000E+00
  0.00000000E+00  0.00000000E+00  0.00000000E+00
  0.00000000E+00  0.00000000E+00  0.00000000E+00
  0.00000000E+00  0.00000000E+00  0.00000000E+00
  0.00000000E+00  0.00000000E+00  0.00000000E+00
  0.00000000E+00  0.00000000E+00  0.00000000E+00
  0.00000000E+00  0.00000000E+00  0.00000000E+00
