Al2 N2                                  
   1.0000000000000000     
     9.2872018813999997    0.0000000000000000    0.0000000000000000
    -4.6436029654000004    8.0429537929000006    0.0000000000000000
     0.0000000000000000    0.0000000000000000    9.9090690613000003
   Si   Al   N 
     1    35    36
Direct
  0.4444443289999995  0.5555556420000016  0.5009863078555739
  0.1116829132491670  0.2211076132886221  0.5003191881348710
  0.1112858346477801  0.2222796746016439  0.9996523665391683
  0.1116829132491670  0.5572422769605503  0.5003191881348710
  0.1112858346477801  0.5556731370461416  0.9996523665391683
  0.1111109929999969  0.8888890149999966  0.4998269347771808
  0.1111109929999969  0.8888890149999966  0.9997974907780223
  0.4427576940394508  0.2211076132886221  0.5003191881348710
  0.4443268339538596  0.2222796746016439  0.9996523665391683
  0.4444443289999995  0.5555556420000016  0.9991872408482685
  0.4427576940394508  0.8883170947508265  0.5003191881348710
  0.4443268339538596  0.8887141733522207  0.9996523665391683
  0.7777776719999991  0.2222223280000009  0.5004501856839368
  0.7777776719999991  0.2222223280000009  0.9994529187010024
  0.7788923867113778  0.5572422769605503  0.5003191881348710
  0.7777203253983558  0.5556731370461416  0.9996523665391683
  0.7788923867113778  0.8883170947508265  0.5003191881348710
  0.7777203253983558  0.8887141733522207  0.9996523665391683
  0.2220943366757524  0.1108550103515071  0.2493993848841800
  0.2220355767854926  0.1107374905709804  0.7503304986015337
  0.2237335838718546  0.4451999569359264  0.2481881140754956
  0.2202659280000496  0.4434661290000204  0.7489372743250596
  0.2220943366757524  0.7779056633242475  0.2493993848841800
  0.2220355767854926  0.7779644232145073  0.7503304986015337
  0.5560519023134689  0.1113591231567305  0.2490870072873302
  0.5557125756175355  0.1111894598087639  0.7500927284497541
  0.5548000140640749  0.4451999569359264  0.2481881140754956
  0.5565338419999809  0.4434661290000204  0.7489372743250596
  0.5548000140640749  0.7762664161281525  0.2481881140754956
  0.5565338419999809  0.7797340719999504  0.7489372743250596
  0.8886408848432631  0.1113591231567305  0.2490870072873302
  0.8888105481912297  0.1111894598087639  0.7500927284497541
  0.8886408848432631  0.4439480686865325  0.2490870072873302
  0.8888105481912297  0.4442873953824657  0.7500927284497541
  0.8891449976484935  0.7779056633242475  0.2493993848841800
  0.8892625174290132  0.7779644232145073  0.7503304986015337
  0.1115765630999032  0.2231390223559422  0.1912945963911846
  0.1112971744265382  0.2223276735696062  0.6900989747324485
  0.1115765630999032  0.5551045177439595  0.1912945963911846
  0.1112971744265382  0.5556364778569376  0.6900989747324485
  0.1111109929999969  0.8888890149999966  0.1905873298349157
  0.1111109929999969  0.8888890149999966  0.6904778375882659
  0.4448954532560417  0.2231390223559422  0.1912945963911846
  0.4443634931430636  0.2223276735696062  0.6900989747324485
  0.4444443289999995  0.5555556420000016  0.1891667731451840
  0.4444443289999995  0.5555556420000016  0.6796116329482300
  0.4448954532560417  0.8884234449000905  0.1912945963911846
  0.4443634931430636  0.8887028335734553  0.6900989747324485
  0.7777776719999991  0.2222223280000009  0.1901319979474290
  0.7777776719999991  0.2222223280000009  0.6908546110090700
  0.7768609776440579  0.5551045177439595  0.1912945963911846
  0.7776723264303941  0.5556364778569376  0.6900989747324485
  0.7768609776440579  0.8884234449000905  0.1912945963911846
  0.7776723264303941  0.8887028335734553  0.6900989747324485
  0.2222427178551681  0.1111517727103314  0.4401024392500290
  0.2222645295767923  0.1111953961535726  0.9409145045891715
  0.2355491360469698  0.4511077330234839  0.4433810497140682
  0.2232217011270725  0.4449440155635318  0.9389918742859384
  0.2222427178551681  0.7777572821448321  0.4401024392500290
  0.2222645295767923  0.7777354704232150  0.9409145045891715
  0.5555822758866328  0.1111243099433090  0.4402209449229753
  0.5553191840458820  0.1109927640229370  0.9407800153134379
  0.5488922379765173  0.4511077330234839  0.4433810497140682
  0.5550559554364622  0.4449440155635318  0.9389918742859384
  0.5488922379765173  0.7644508639530303  0.4433810497140682
  0.5550559554364622  0.7767782988729275  0.9389918742859384
  0.8888756980566773  0.1111243099433090  0.4402209449229753
  0.8890072439770564  0.1109927640229370  0.9407800153134379
  0.8888756980566773  0.4444176951133684  0.4402209449229753
  0.8890072439770564  0.4446807869541195  0.9407800153134379
  0.8888482352896623  0.7777572821448321  0.4401024392500290
  0.8888046118464208  0.7777354704232150  0.9409145045891715