l16, N42                                
   1.0000000000000000     
     9.2872018813999997    0.0000000000000000    0.0000000000000000
    -4.6436018943999997    8.0429544112000002    0.0000000000000000
     0.0000000000000000    0.0000000000000000   14.8636035919000005
   Al   N 
    55    54
Direct
  0.4661092560942990  0.5346370993421630  0.5887608001170506
  0.1106975594034267  0.2201401903276192  0.3302725494228937
  0.1089628288268401  0.2209249117594183  0.0018241099850869
  0.1146907042066729  0.2257464023977107  0.6661290056416789
  0.1121734521204800  0.5563417397485395  0.3298275094499417
  0.1079988646828980  0.5570939689584335  0.0015532257164494
  0.1193315896160101  0.5818426051927830  0.6696776080390308
  0.1106344243436013  0.8901767810842713  0.3295154649427303
  0.1103522583457988  0.8901333831576395  0.9991799477766463
  0.1039973205682401  0.8964870201082604  0.6647991853065065
  0.4424642894253523  0.2148383385286792  0.3278657979424437
  0.4440385735102836  0.2246956347224440  0.0010454025946416
  0.4456211293458097  0.2176670520676396  0.6644354188948398
  0.4468125232331275  0.5537319110003338  0.3308608167912013
  0.4438806567896592  0.5566752906441437  0.0014098527579804
  0.3790158473996001  0.6216979371015299  0.7084817581149281
  0.4444799028712509  0.8886275203303811  0.3298431085092872
  0.4434353425170769  0.8925318771040764  0.0015122805956054
  0.4187028167344451  0.8812725242325072  0.6696825245657863
  0.7786552780683209  0.2222029472614793  0.3323414168503760
  0.7772569230904693  0.2231306924708747  0.0004987473801208
  0.7786385418744217  0.2219246401967752  0.6668742036096376
  0.7858337383091509  0.5582435979626084  0.3278363212719171
  0.7757894466410633  0.5564527680859186  0.0011033901462696
  0.7829035306254468  0.5549593851425172  0.6644647137312774
  0.7805460006728495  0.8900753316312446  0.3302772166120533
  0.7795499093149587  0.8915361470592202  0.0018921517661568
  0.7749173288256728  0.8860221474112464  0.6660970915961570
  0.2217391590886706  0.1109958376078382  0.1647344308997560
  0.2221597182588653  0.1134204722391914  0.8328154071210676
  0.2217881560574355  0.1097262702127679  0.4975925906538734
  0.2225814283473824  0.4448036218352414  0.1661206773017128
  0.2100974663951689  0.4395661507908883  0.8432940405167670
  0.2126371455648624  0.4381620439899052  0.4918116660077274
  0.2218616092038275  0.7787464466605627  0.1654500916635371
  0.2213892975802025  0.7790931316735268  0.8355025680070227
  0.2189183934555814  0.7818582200731541  0.4939235429822517
  0.5569445003961206  0.1115838648134968  0.1650695322616755
  0.5565584596414510  0.1189078089365267  0.8354872576661379
  0.5551749824714207  0.1046634397816533  0.4998493181158494
  0.5561192340984960  0.4444252144201570  0.1670547890456078
  0.5532064531830940  0.4474034436861487  0.8341300006679759
  0.5750927584579841  0.4255255999570835  0.4812806167263020
  0.5558319567055392  0.7781102133649256  0.1661526463009793
  0.5610676974641038  0.7904980240459878  0.8432868625893164
  0.5624402354169860  0.7878953799406219  0.4917401928867946
  0.8887756052477513  0.1118621780716040  0.1665247813791950
  0.8876563700087630  0.1129624840411765  0.8328119916832648
  0.8897555286757353  0.1109019530865680  0.4990684729059396
  0.8890796540523525  0.4436623776087387  0.1650255696670371
  0.8816072582905079  0.4439281495003513  0.8355268215147404
  0.8960296001353782  0.4455953021195498  0.4998504039346088
  0.8895745058727016  0.7788442068287935  0.1648362552641132
  0.8870955450499665  0.7783881661637508  0.8328353977899852
  0.8909435311802909  0.7788817751148613  0.4975481590167021
  0.1104867392917228  0.2221476264205577  0.1282051902407417
  0.1107062696488015  0.2256041149290482  0.7936390594381635
  0.1097820602971993  0.2197149292910510  0.4574333186369728
  0.1113800393701325  0.5563721732184348  0.1283652765048018
  0.1015410758219488  0.5528929260205899  0.8006299787321041
  0.1145801826458523  0.5575580338869131  0.4570638274991623
  0.1109860342380742  0.8895456685212437  0.1259793037473642
  0.1097814482149602  0.8907167984601472  0.7927768246957143
  0.1087803582674880  0.8918860260136583  0.4548260200846101
  0.4447151867953991  0.2230732711250880  0.1281181352009426
  0.4443014086995731  0.2273778386916021  0.7917718683869026
  0.4413668107686561  0.2083747608020659  0.4542732903610798
  0.4452160368438456  0.5554724499870574  0.1290884710638380
  0.4397201072822767  0.5608908289849452  0.8087470487014770
  0.4516154429069701  0.5489829492254259  0.4635966459498206
  0.4442328252222438  0.8892741390632537  0.1283448439120960
  0.4475943024613755  0.8989661802052140  0.8006213834651916
  0.4432014472972128  0.8861597744155816  0.4570624859449168
  0.7784617892614278  0.2221424175948883  0.1268313107263808
  0.7763775820972185  0.2241665993693900  0.7941362315560099
  0.7782670769176221  0.2224736006529540  0.4605683562312564
  0.7775125466637505  0.5558828759910952  0.1281705148171142
  0.7731932630954574  0.5562636662690181  0.7917943688934912
  0.7922278649570202  0.5592816847323618  0.4542421741779492
  0.7784482117353022  0.8901175762841831  0.1282531512677991
  0.7749547989883823  0.8898790746932477  0.7936060613673845
  0.7809479958949481  0.8908913959091791  0.4574181862121520
  0.2220027722253661  0.1110467085304236  0.2908349918818018
  0.2220029583336824  0.1130251390928763  0.9603192156452565
  0.2238532642782189  0.1163466441795080  0.6250942004734199
  0.2249880659863948  0.4446373309349525  0.2948388050469006
  0.2185052983287505  0.4437514980966810  0.9670008662803014
  0.2427556222144247  0.4444879443626135  0.6201845860297652
  0.2222569532351955  0.7785095465171992  0.2925155173750653
  0.2214017956624730  0.7791021325004266  0.9622954911388817
  0.2069386142027341  0.7936260607994825  0.6163423730082584
  0.5581193722328379  0.1096636036183369  0.2915617797832226
  0.5554535833330903  0.1151494624360510  0.9626103938590020
  0.5538336328716085  0.1013441736336418  0.6271701882931495
  0.5582101289715382  0.4424386588489710  0.2961680450219291
  0.5546056452342825  0.4458911976215063  0.9615534231490201
  0.5734484822336583  0.4271304090705996  0.6114629605419921
  0.5560265708026506  0.7756490242527931  0.2948660804334082
  0.5568054107132312  0.7820501527808474  0.9669769109300077
  0.5561156898765915  0.7579502852714697  0.6201407405618440
  0.8891633107400949  0.1115927490853821  0.2930469421720545
  0.8883597477977858  0.1121024403026070  0.9602485771318285
  0.8901149965765072  0.1105284263706210  0.6267290058010104
  0.8910932062137391  0.4426673910917955  0.2915326272562098
  0.8853530918849017  0.4450550308310142  0.9626626398609304
  0.8992338408513092  0.4467597299248780  0.6271708262290829
  0.8896641884517464  0.7787387324525810  0.2908897259159033
  0.8874281546447804  0.7784555390495598  0.9603399849775371
  0.8841965996596102  0.7767107119894234  0.6250773776880791