Al2 N2                                  
   1.0000000000000000     
     9.2872018813999997    0.0000000000000000    0.0000000000000000
    -4.6436018943999997    8.0429544112000002    0.0000000000000000
     0.0000000000000000    0.0000000000000000   14.8636035919000005
   Al   N 
    55    54
Direct
  0.3168666235660358  0.3003999141320727  0.5889024259400042
  0.1026538174289834  0.2249388263137158  0.3199014737826498
  0.1111571466567204  0.2215320958830103  0.9996701516679435
  0.0861667328167643  0.2109765543721260  0.6851351537968705
  0.1112127814147837  0.5579092532666377  0.3312421996099101
  0.1100656892700959  0.5562555910718969  0.0006440749159406
  0.1109422719314822  0.5549835644764222  0.6651282692140980
  0.1103065736875546  0.8872801623751037  0.3297317060204460
  0.1112268585223653  0.8891207320447321  0.9994124105850798
  0.1107386287886766  0.8881442725773405  0.6703058103687457
  0.4556180098847321  0.2249388263137158  0.3199014737826498
  0.4437079502262896  0.2215320958830103  0.9996701516679435
  0.4581428225553543  0.2109765543721260  0.6851351537968705
  0.4456177759598901  0.5579035489197919  0.3275281951166247
  0.4450205526310930  0.5567091022621835  0.0009874465312887
  0.4504998144354382  0.5676676258708669  0.6738460980998425
  0.4456195578888110  0.8897925250793068  0.3311319447523353
  0.4433754759026611  0.8865647472731958  0.0008433723030817
  0.4439209283707962  0.8876530482672439  0.6663767349381469
  0.7772610155417208  0.2211879730834433  0.3312883136172802
  0.7787888520007185  0.2242436460014387  0.0010085267622283
  0.7770270255987934  0.2207199931976025  0.6660017546234800
  0.7800295018518524  0.5579092532666377  0.3312421996099101
  0.7795229318018065  0.5562555910718969  0.0006440749159406
  0.7773743225449385  0.5549835644764222  0.6651282692140980
  0.7775059821905108  0.8897925250793068  0.3311319447523353
  0.7765222863705356  0.8865647472731958  0.0008433723030817
  0.7770651348964556  0.8876530482672439  0.6663767349381469
  0.2223849306567168  0.1114368613134234  0.1649532907555577
  0.2211407591751712  0.1089485183503320  0.8319485774930123
  0.2331050499153786  0.1328770998307395  0.4601599948968481
  0.2227352481331418  0.4473043366651472  0.1633485233897135
  0.2212393564497246  0.4466991956771026  0.8381036787879595
  0.2191547198644325  0.4411107910306011  0.4863703928502781
  0.2224632067287015  0.7784244442619614  0.1655693423422984
  0.2215236010457097  0.7759617835034233  0.8344652146449875
  0.2239426662015857  0.7836280805419761  0.4981967533013648
  0.5572350877256390  0.1095521796931296  0.1623741167177361
  0.5589396389834682  0.1075581110503619  0.8395179491529253
  0.5570238602856192  0.1113157071848688  0.4963995536912696
  0.5579030865320058  0.4473043366651472  0.1633485233897135
  0.5587938372273713  0.4466991956771026  0.8381036787879595
  0.5552900691661690  0.4411107910306011  0.4863703928502781
  0.5559494371922761  0.7785649053845430  0.1658626157132992
  0.5560542241464261  0.7787744792928575  0.8351833202044228
  0.5555596694922956  0.7777853699845965  0.4970289213355075
  0.8856511059674782  0.1095521796931296  0.1623741167177361
  0.8819524860668887  0.1075581110503619  0.8395179491529253
  0.8876258608992443  0.1113157071848688  0.4963995536912696
  0.8891366509976394  0.4449392729952864  0.1665391566978449
  0.8887167959581399  0.4440995629162872  0.8324256270647398
  0.8889691513111471  0.4446042736223014  0.4976550337052187
  0.8892942235332622  0.7784244442619614  0.1655693423422984
  0.8877711684577155  0.7759617835034233  0.8344652146449875
  0.8930184003403996  0.7836280805419761  0.4981967533013648
  0.1111566840832122  0.2226702239180986  0.1275139598887929
  0.1037457737811619  0.2233410840364703  0.8061948139407749
  0.0923631247018089  0.2238748319003379  0.4427520590993697
  0.1099740556838280  0.5568193135819141  0.1266680048014682
  0.1117670672925619  0.5544849148440442  0.7922935776431108
  0.1121058048543643  0.5601863044831092  0.4597436225073843
  0.1115645091046009  0.8897960332091891  0.1269208200863061
  0.1080815565300061  0.8828301280599994  0.7971734675550227
  0.1156113848501093  0.8978897847002131  0.4580234058330607
  0.4448465408348932  0.2226702239180986  0.1275139598887929
  0.4529283112553154  0.2233410840364703  0.8061948139407749
  0.4648447081985357  0.2238748319003379  0.4427520590993697
  0.4451679986786909  0.5570039943573653  0.1267317234212272
  0.4441767565221231  0.5550215100442509  0.7974547323994760
  0.4465550905717738  0.5597781781435310  0.4547502171377888
  0.4434418181234668  0.8868685673827116  0.1262257497144558
  0.4445390142992681  0.8886259265578753  0.7939434450462043
  0.4453286214614317  0.8893498763366139  0.4593416835235735
  0.7792589751568831  0.2251838923137751  0.1257604177900574
  0.7768699900338265  0.2204059220676477  0.7937784065127363
  0.7780173505025999  0.2227006430052084  0.4596477795366311
  0.7801782878980846  0.5568193135819141  0.1266680048014682
  0.7760508775514665  0.5544849148440442  0.7922935776431108
  0.7814135296287440  0.5601863044831092  0.4597436225073843
  0.7767597642592314  0.8868685673827116  0.1262257497144558
  0.7774199272586013  0.8886259265578753  0.7939434450462043
  0.7773542698751904  0.8893498763366139  0.4593416835235735
  0.2236241150258991  0.1139152300517877  0.2945432841888092
  0.2219885143924325  0.1106440287848619  0.9606939433415166
  0.2269958321093878  0.1206586642187724  0.6641105723059126
  0.2232321868108813  0.4494866377984257  0.2898094322737932
  0.2225573726766656  0.4461021441944568  0.9634543378789308
  0.2235295243856294  0.4332663493122760  0.6287392788425721
  0.2230038603416100  0.7792436629135179  0.2926030389455174
  0.2223216648283976  0.7771429844313104  0.9607591076574392
  0.2221066581910509  0.7782376641993484  0.6265829186433353
  0.5590617275814946  0.1075896506097341  0.2873664483007696
  0.5565130240909352  0.1092032112233258  0.9642376003689441
  0.5556390225225782  0.1090368710756391  0.6263856383514982
  0.5595884489875591  0.4494866377984257  0.2898094322737932
  0.5568787695177915  0.4461021441944568  0.9634543378789308
  0.5430708229266472  0.4332663493122760  0.6287392788425721
  0.5562713068176021  0.7792086446351953  0.2920790176204260
  0.5555292159803192  0.7777244629606368  0.9606418704236612
  0.5554003000011815  0.7774666310023611  0.6262577759773366
  0.8818619370282341  0.1075896506097341  0.2873664483007696
  0.8860242011323853  0.1092032112233258  0.9642376003689441
  0.8867318625530485  0.1090368710756391  0.6263856383514982
  0.8890183833692059  0.4447027377384268  0.2936456608525982
  0.8890542180874926  0.4447744071749860  0.9590370218817957
  0.8880869192770593  0.4428398095541334  0.6262461260292529
  0.8895727885719169  0.7792436629135179  0.2926030389455174
  0.8881543056029075  0.7771429844313104  0.9607591076574392
  0.8894639920082993  0.7782376641993484  0.6265829186433353