Al2 N2                                  
   1.0000000000000000     
     9.2872018813999997    0.0000000000000000    0.0000000000000000
    -4.6436029654000004    8.0429537929000006    0.0000000000000000
     0.0000000000000000    0.0000000000000000    9.9090690613000003
   Al   N 
    37    36
Direct
  0.6666700000000034  0.3333333329999988  0.8901068263135349
  0.1102683728874466  0.2205370877748930  0.5039181299646412
  0.1114466349645533  0.2228936119291137  0.9945955010399001
  0.1108902301097992  0.5554452605548994  0.4947380347190403
  0.1110387849182844  0.5555195379591451  0.0048883598937942
  0.1102683728874466  0.8897316351125542  0.5039181299646412
  0.1114466349645533  0.8885533730354400  0.9945955010399001
  0.4387746878680190  0.2193875074340071  0.4645509169544287
  0.4226800005766274  0.2113401637883077  0.0309771750868209
  0.4445547104451020  0.5554452605548994  0.4947380347190403
  0.4444804330408558  0.5555195379591451  0.0048883598937942
  0.4445547104451020  0.8891097778901944  0.4947380347190403
  0.4444804330408558  0.8889612230817091  0.0048883598937942
  0.7806124925659929  0.2193875074340071  0.4645509169544287
  0.7886598362116924  0.2113401637883077  0.0309771750868209
  0.7806124925659929  0.5612252831319822  0.4645509169544287
  0.7886598362116924  0.5773199704233738  0.0309771750868209
  0.7794629122251070  0.8897316351125542  0.5039181299646412
  0.7771063880708794  0.8885533730354400  0.9945955010399001
  0.2086801134936677  0.1043398857468304  0.2538925970382788
  0.2313777774700497  0.1156887177350178  0.7444794732146555
  0.2221159165003582  0.4442315060007070  0.2525867045485468
  0.2226572275992084  0.4453141281984076  0.7468365352113333
  0.2221159165003582  0.7778840834996420  0.2525867045485468
  0.2226572275992084  0.7773427724007914  0.7468365352113333
  0.5520078724771214  0.1040154539542292  0.2336539665491673
  0.5628138997445539  0.1256275084891014  0.7096819349075129
  0.5520078724771214  0.4479920985228799  0.2336539665491673
  0.5628138997445539  0.4371860712554473  0.7096819349075129
  0.5557684649992871  0.7778840834996420  0.2525867045485468
  0.5546858428015936  0.7773427724007914  0.7468365352113333
  0.8956601222531632  0.1043398857468304  0.2538925970382788
  0.8843112902649757  0.1156887177350178  0.7444794732146555
  0.8959845540457645  0.4479920985228799  0.2336539665491673
  0.8743724995108993  0.4371860712554473  0.7096819349075129
  0.8956601222531632  0.7913198865063326  0.2538925970382788
  0.8843112902649757  0.7686222225299506  0.7444794732146555
  0.1115807519667099  0.2231618459334409  0.1850723804018244
  0.1108416119053562  0.2216835658107122  0.6941755145175182
  0.1229254818414738  0.5614628864207436  0.1947476373097669
  0.1113249000295026  0.5556625955147544  0.6859653662591452
  0.1115807519667099  0.8884192560332763  0.1850723804018244
  0.1108416119053562  0.8891583960946445  0.6941755145175182
  0.4286487704812314  0.2143245487406168  0.2181964634643138
  0.4300054089343860  0.2150028679671977  0.6498247724323613
  0.4385370845792576  0.5614628864207436  0.1947476373097669
  0.4443373754852467  0.5556625955147544  0.6859653662591452
  0.4385370845792576  0.8770745261585198  0.1947476373097669
  0.4443373754852467  0.8886751079704909  0.6859653662591452
  0.7856754512593831  0.2143245487406168  0.2181964634643138
  0.7849971320328095  0.2150028679671977  0.6498247724323613
  0.7856754512593831  0.5713512005187769  0.2181964634643138
  0.7849971320328095  0.5699945620656149  0.6498247724323613
  0.7768381540665591  0.8884192560332763  0.1850723804018244
  0.7783164341892879  0.8891583960946445  0.6941755145175182
  0.2083280086543432  0.1041638333271646  0.4375324162403160
  0.2223653466904637  0.1111825023452283  0.9394131587157601
  0.2205901417827317  0.4411799565654755  0.4416420927769473
  0.2229752215667337  0.4459501161334651  0.9388346742790861
  0.2205901417827317  0.7794098582172682  0.4416420927769473
  0.2229752215667337  0.7770247784332664  0.9388346742790861
  0.5521203509879230  0.1042404109758397  0.4281236042258620
  0.5605533671824769  0.1211064433649336  0.0166368224778280
  0.5521203509879230  0.4478796200120782  0.4281236042258620
  0.5605533671824769  0.4394466038175241  0.0166368224778280
  0.5588200144345257  0.7794098582172682  0.4416420927769473
  0.5540498548665361  0.7770247784332664  0.9388346742790861
  0.8958361746728291  0.1041638333271646  0.4375324162403160
  0.8888175056547652  0.1111825023452283  0.9394131587157601
  0.8957595970241539  0.4478796200120782  0.4281236042258620
  0.8788935646350529  0.4394466038175241  0.0166368224778280
  0.8958361746728291  0.7916719913456567  0.4375324162403160
  0.8888175056547652  0.7776346533095362  0.9394131587157601