Al/             N/                      
    1.000000000000000     
     9.2872018813999997    0.0000000000000000    0.0000000000000000
    -4.6436018943999997    8.0429544112000002    0.0000000000000000
     0.0000000000000000    0.0000000000000000   14.8636035919000005
  Al             N            
              55              54
Direct
  0.2556230099399879  0.3341876553500502  0.2349262979410326
  0.0813416483410783  0.2036192204171106  0.3571049316773518
  0.1096778101572173  0.2175038360375194  0.9943723093918500
  0.1125682549221982  0.2266766040420443  0.6662882450900098
  0.1084558222507107  0.5566498592174779  0.3373678655542811
  0.1090356102634824  0.5647755326379026  0.9933967901075387
  0.1128122747295408  0.5589520498804443  0.6661768933108372
  0.1109023223650383  0.8922577660997234  0.3307825444677600
  0.1119219038440578  0.8882621727376969 -0.0041121668473646
  0.1112175450044572  0.8910584565210907  0.6677839707272752
  0.4478701736712875  0.2278201413830302  0.3346520643618338
  0.4505858650353153  0.2279424315601374  0.9956763488617015
  0.4464178175870484  0.2252522243589209  0.6668458920667957
  0.4475343177716610  0.5632742410419346  0.3406027959434680
  0.4719432339130611  0.5760776846209736  0.9802063252306724
  0.4451079846567109  0.5592141200830417  0.6663341864470497
  0.4437639185744206  0.8911956118102980  0.3325931641852284
  0.4494221093671579  0.8953654043791267  0.9970317109968199
  0.4451887616169689  0.8944755132712606  0.6650246466688141
  0.7755072537111601  0.2256113269123537  0.3333344469140556
  0.7811265762304861  0.2265018904427596  0.9984608878921151
  0.7772648673851968  0.2264633003948819  0.6676474051438670
  0.7798593594730283  0.5586914959294419  0.3327886211064770
  0.7792068028104008  0.5579802710244353 -0.0000022665603033
  0.7808088914428603  0.5606236291866751  0.6650872729910733
  0.7725170483334688  0.8871044642182057  0.3328276267954390
  0.7812760199255833  0.8949697858298282  0.9987793874737599
  0.7798959114670152  0.8915810332119926  0.6666892367096097
  0.2246002172695555  0.0986946065623486  0.1521881552305459
  0.2252279926728002  0.1142716042936918  0.8313239443727088
  0.2231105549026317  0.1107054361756805  0.5055149517579971
  0.2590032211496610  0.4736736624694339  0.1093825431612393
  0.2255217424458887  0.4491833124197482  0.8329154165306021
  0.2212613693655378  0.4477888412192377  0.4987553831798083
  0.2266841980193399  0.7767016597864003  0.1648735004530206
  0.2264664692517989  0.7835076827920414  0.8303608234267852
  0.2218443673434575  0.7820983563694108  0.5005113921967094
  0.5600355388434194  0.1171842506907090  0.1645276657448745
  0.5585089648145193  0.1154913429742589  0.8323496852862630
  0.5551497816141688  0.1144792675903444  0.4994389064050627
  0.5483154608009109  0.4529545125492616  0.1634899273629568
  0.5615703645875760  0.4472548497721577  0.8279008140890859
  0.5572169793593034  0.4483109630451666  0.5015978520113763
  0.5644243230757737  0.7880975527854612  0.1627585822183739
  0.5616253069163301  0.7893555883930163  0.8266653622818702
  0.5556212417236495  0.7819979990136182  0.5025379232534333
  0.8926069596615891  0.1163342548040660  0.1664405224880231
  0.8908136333794752  0.1152441498262098  0.8309472776801566
  0.8793624143322535  0.1087532155978540  0.5071797438333183
  0.8946190038106384  0.4484075610248486  0.1651697176932970
  0.8902940996875003  0.4486128450802515  0.8313656621975177
  0.8884023039170946  0.4478549760077464  0.5014438296800986
  0.8876089664312433  0.7774210232294209  0.1647813017005775
  0.8903750254510909  0.7809865793767572  0.8325445959739977
  0.8896874825498279  0.7814533250564349  0.4986699502765068
  0.1127735949541268  0.2194640155617026  0.1231074631997950
  0.1152136184848574  0.2281693640223371  0.7952537752404503
  0.1028958385957071  0.2143000715326997  0.4766207357017246
  0.1168578941412271  0.5597386452786202  0.1206775244932812
  0.1143823322485946  0.5593050985867424  0.7948152640941711
  0.1089712318025264  0.5615954712669006  0.4641837270665232
  0.1099220009538398  0.8808740723945058  0.1239918999793575
  0.1122328772839627  0.8919276129499125  0.7941669123660765
  0.1128664010620867  0.8948030309145814  0.4579321644108404
  0.4481685318010495  0.2251448783869466  0.1228969222368631
  0.4468033756293577  0.2249247784751264  0.7928799067790684
  0.4422184311899197  0.2251455064384418  0.4610110204323092
  0.4885061675855282  0.5931608504235892  0.1011827909246643
  0.4479038309449679  0.5610455669924831  0.7954756346467979
  0.4482518462110265  0.5615691250661775  0.4659321492852980
  0.4484824691873115  0.8948711474890311  0.1251250026487091
  0.4465468227306355  0.8959459612453553  0.7906896733222630
  0.4443916146588680  0.8918866673551324  0.4601635277166156
  0.7826860079951751  0.2265205638309997  0.1263854024680166
  0.7796291553714860  0.2267921048151149  0.7937184441063689
  0.7778893137773697  0.2252809483803307  0.4607360486701650
  0.7785626475966237  0.5551970714472958  0.1273227796499733
  0.7828354553986604  0.5614307356076165  0.7911562362414311
  0.7783312275815406  0.5586828757203161  0.4604340157384532
  0.7870039182050131  0.8989581253535212  0.1266475482932862
  0.7836488101831128  0.8940444537235089  0.7919455466290992
  0.7760830227099362  0.8914315467109233  0.4605066740645051
  0.2190585959996142  0.1269840183654194  0.2893192173412589
  0.2256977896960615  0.1125344687925997  0.9595758322365007
  0.2239336492963331  0.1130350643155923  0.6307839386757860
  0.2088812855557319  0.4277710462166247  0.3283775427684460
  0.2304704316445564  0.4512039396132702  0.9672818889765757
  0.2238359565385215  0.4486488949576081  0.6278438167926069
  0.2216028326646761  0.7790217286845084  0.2925614044156061
  0.2276305471573323  0.7839704506197434  0.9569129953202634
  0.2226792087716990  0.7819508944402345  0.6274247814699581
  0.5532221776099751  0.1140462172845781  0.2928869838412281
  0.5600571281895933  0.1164592593178526  0.9588935008569752
  0.5570425383584201  0.1157754616590920  0.6258145081068431
  0.5562765831440281  0.4497832959153930  0.2958655897919261
  0.5635994342998836  0.4458852323192408  0.9530636884403748
  0.5571617107211868  0.4479060929416592  0.6285613722709243
  0.5514810854689485  0.7770961154704402  0.2915398712038905
  0.5660852063968616  0.7967150981912776  0.9508494043295475
  0.5571434981157999  0.7826711914401472  0.6289721516573423
  0.8835267289289663  0.1102650649796599  0.2952002848464798
  0.8918729603599012  0.1163362922545142  0.9580235620078115
  0.8868339938920055  0.1138708624528648  0.6316709414712411
  0.8907530414770066  0.4472287173765868  0.2929718627011481
  0.8901098443368572  0.4480813297779940  0.9582843087519521
  0.8899408202893198  0.4475374746363087  0.6280086808938049
  0.8893284663679131  0.7817642705797939  0.2928843412222469
  0.8895258329453634  0.7803371612907829  0.9598173898301330
  0.8912760251928343  0.7824106757800182  0.6254588038985236
 
  0.00000000E+00  0.00000000E+00  0.00000000E+00
  0.00000000E+00  0.00000000E+00  0.00000000E+00
  0.00000000E+00  0.00000000E+00  0.00000000E+00
  0.00000000E+00  0.00000000E+00  0.00000000E+00
  0.00000000E+00  0.00000000E+00  0.00000000E+00
  0.00000000E+00  0.00000000E+00  0.00000000E+00
  0.00000000E+00  0.00000000E+00  0.00000000E+00
  0.00000000E+00  0.00000000E+00  0.00000000E+00
  0.00000000E+00  0.00000000E+00  0.00000000E+00
  0.00000000E+00  0.00000000E+00  0.00000000E+00
  0.00000000E+00  0.00000000E+00  0.00000000E+00
  0.00000000E+00  0.00000000E+00  0.00000000E+00
  0.00000000E+00  0.00000000E+00  0.00000000E+00
  0.00000000E+00  0.00000000E+00  0.00000000E+00
  0.00000000E+00  0.00000000E+00  0.00000000E+00
  0.00000000E+00  0.00000000E+00  0.00000000E+00
  0.00000000E+00  0.00000000E+00  0.00000000E+00
  0.00000000E+00  0.00000000E+00  0.00000000E+00
  0.00000000E+00  0.00000000E+00  0.00000000E+00
  0.00000000E+00  0.00000000E+00  0.00000000E+00
  0.00000000E+00  0.00000000E+00  0.00000000E+00
  0.00000000E+00  0.00000000E+00  0.00000000E+00
  0.00000000E+00  0.00000000E+00  0.00000000E+00
  0.00000000E+00  0.00000000E+00  0.00000000E+00
  0.00000000E+00  0.00000000E+00  0.00000000E+00
  0.00000000E+00  0.00000000E+00  0.00000000E+00
  0.00000000E+00  0.00000000E+00  0.00000000E+00
  0.00000000E+00  0.00000000E+00  0.00000000E+00
  0.00000000E+00  0.00000000E+00  0.00000000E+00
  0.00000000E+00  0.00000000E+00  0.00000000E+00
  0.00000000E+00  0.00000000E+00  0.00000000E+00
  0.00000000E+00  0.00000000E+00  0.00000000E+00
  0.00000000E+00  0.00000000E+00  0.00000000E+00
  0.00000000E+00  0.00000000E+00  0.00000000E+00
  0.00000000E+00  0.00000000E+00  0.00000000E+00
  0.00000000E+00  0.00000000E+00  0.00000000E+00
  0.00000000E+00  0.00000000E+00  0.00000000E+00
  0.00000000E+00  0.00000000E+00  0.00000000E+00
  0.00000000E+00  0.00000000E+00  0.00000000E+00
  0.00000000E+00  0.00000000E+00  0.00000000E+00
  0.00000000E+00  0.00000000E+00  0.00000000E+00
  0.00000000E+00  0.00000000E+00  0.00000000E+00
  0.00000000E+00  0.00000000E+00  0.00000000E+00
  0.00000000E+00  0.00000000E+00  0.00000000E+00
  0.00000000E+00  0.00000000E+00  0.00000000E+00
  0.00000000E+00  0.00000000E+00  0.00000000E+00
  0.00000000E+00  0.00000000E+00  0.00000000E+00
  0.00000000E+00  0.00000000E+00  0.00000000E+00
  0.00000000E+00  0.00000000E+00  0.00000000E+00
  0.00000000E+00  0.00000000E+00  0.00000000E+00
  0.00000000E+00  0.00000000E+00  0.00000000E+00
  0.00000000E+00  0.00000000E+00  0.00000000E+00
  0.00000000E+00  0.00000000E+00  0.00000000E+00
  0.00000000E+00  0.00000000E+00  0.00000000E+00
  0.00000000E+00  0.00000000E+00  0.00000000E+00
  0.00000000E+00  0.00000000E+00  0.00000000E+00
  0.00000000E+00  0.00000000E+00  0.00000000E+00
  0.00000000E+00  0.00000000E+00  0.00000000E+00
  0.00000000E+00  0.00000000E+00  0.00000000E+00
  0.00000000E+00  0.00000000E+00  0.00000000E+00
  0.00000000E+00  0.00000000E+00  0.00000000E+00
  0.00000000E+00  0.00000000E+00  0.00000000E+00
  0.00000000E+00  0.00000000E+00  0.00000000E+00
  0.00000000E+00  0.00000000E+00  0.00000000E+00
  0.00000000E+00  0.00000000E+00  0.00000000E+00
  0.00000000E+00  0.00000000E+00  0.00000000E+00
  0.00000000E+00  0.00000000E+00  0.00000000E+00
  0.00000000E+00  0.00000000E+00  0.00000000E+00
  0.00000000E+00  0.00000000E+00  0.00000000E+00
  0.00000000E+00  0.00000000E+00  0.00000000E+00
  0.00000000E+00  0.00000000E+00  0.00000000E+00
  0.00000000E+00  0.00000000E+00  0.00000000E+00
  0.00000000E+00  0.00000000E+00  0.00000000E+00
  0.00000000E+00  0.00000000E+00  0.00000000E+00
  0.00000000E+00  0.00000000E+00  0.00000000E+00
  0.00000000E+00  0.00000000E+00  0.00000000E+00
  0.00000000E+00  0.00000000E+00  0.00000000E+00
  0.00000000E+00  0.00000000E+00  0.00000000E+00
  0.00000000E+00  0.00000000E+00  0.00000000E+00
  0.00000000E+00  0.00000000E+00  0.00000000E+00
  0.00000000E+00  0.00000000E+00  0.00000000E+00
  0.00000000E+00  0.00000000E+00  0.00000000E+00
  0.00000000E+00  0.00000000E+00  0.00000000E+00
  0.00000000E+00  0.00000000E+00  0.00000000E+00
  0.00000000E+00  0.00000000E+00  0.00000000E+00
  0.00000000E+00  0.00000000E+00  0.00000000E+00
  0.00000000E+00  0.00000000E+00  0.00000000E+00
  0.00000000E+00  0.00000000E+00  0.00000000E+00
  0.00000000E+00  0.00000000E+00  0.00000000E+00
  0.00000000E+00  0.00000000E+00  0.00000000E+00
  0.00000000E+00  0.00000000E+00  0.00000000E+00
  0.00000000E+00  0.00000000E+00  0.00000000E+00
  0.00000000E+00  0.00000000E+00  0.00000000E+00
  0.00000000E+00  0.00000000E+00  0.00000000E+00
  0.00000000E+00  0.00000000E+00  0.00000000E+00
  0.00000000E+00  0.00000000E+00  0.00000000E+00
  0.00000000E+00  0.00000000E+00  0.00000000E+00
  0.00000000E+00  0.00000000E+00  0.00000000E+00
  0.00000000E+00  0.00000000E+00  0.00000000E+00
  0.00000000E+00  0.00000000E+00  0.00000000E+00
  0.00000000E+00  0.00000000E+00  0.00000000E+00
  0.00000000E+00  0.00000000E+00  0.00000000E+00
  0.00000000E+00  0.00000000E+00  0.00000000E+00
  0.00000000E+00  0.00000000E+00  0.00000000E+00
  0.00000000E+00  0.00000000E+00  0.00000000E+00
  0.00000000E+00  0.00000000E+00  0.00000000E+00
  0.00000000E+00  0.00000000E+00  0.00000000E+00
  0.00000000E+00  0.00000000E+00  0.00000000E+00
  0.00000000E+00  0.00000000E+00  0.00000000E+00
