l16, N42                                
   1.0000000000000000     
     9.2872018813999997    0.0000000000000000    0.0000000000000000
    -4.6436018943999997    8.0429544112000002    0.0000000000000000
     0.0000000000000000    0.0000000000000000   14.8636035919000005
   Al   N 
    55    54
Direct
  0.4651395521174831  0.5357497943326209  0.5902593623124454
  0.1104172676826748  0.2200596513450513  0.3302431402782302
  0.1090249670588393  0.2203549932268167  0.0018606255423746
  0.1142588107405083  0.2261249113738187  0.6661249491982428
  0.1119405836996983  0.5564425158682923  0.3295809903193674
  0.1081940482139163  0.5567894792740143  0.0013934565059906
  0.1179871922249230  0.5797001251539902  0.6686464832810006
  0.1104022925893701  0.8903724739063003  0.3295501670182599
  0.1107197786859000  0.8897491807327353 -0.0011153526867968
  0.1043497296839257  0.8963222269987196  0.6648464401875400
  0.4422587093558751  0.2148219232592500  0.3277879034414635
  0.4441951620619670  0.2244245200003874  0.0011720887678197
  0.4455899687864182  0.2179423416245514  0.6645749645947275
  0.4465529910809072  0.5538323292807238  0.3310912666954848
  0.4441447317735106  0.5563125009242531  0.0013589463586591
  0.3773306615166585  0.6233492322652191  0.7106907987275759
  0.4443191842963774  0.8887231020980806  0.3295954650808941
  0.4435478839952449  0.8922114672663156  0.0014307253428457
  0.4211548163837603  0.8828773124218553  0.6686719604719658
  0.7785280607187155  0.2223669722436358  0.3323617219137952
  0.7774392163373142  0.2228539247542319  0.0004961233578506
  0.7785361724459906  0.2221105280706354  0.6667280251176805
  0.7857469345574968  0.5584481169805450  0.3277496975887288
  0.7760843373549989  0.5562911839768739  0.0012141778034190
  0.7828014736220225  0.5550737758472484  0.6645563593431624
  0.7805673986493397  0.8902744959623913  0.3302357917223906
  0.7801161302990652  0.8913379804019663  0.0019218452667489
  0.7746047933176684  0.8864508973207161  0.6661220215699116
  0.2217885212014565  0.1108961970556548  0.1646390780902734
  0.2225605568219667  0.1126482446865333  0.8327146476163498
  0.2217378973143544  0.1103589400254495  0.4978311861089030
  0.2226683976011736  0.4447199119981396  0.1661043476987235
  0.2097677811594019  0.4379532831428478  0.8434919426211168
  0.2123163374939056  0.4385714398760328  0.4915681084783581
  0.2218621348147971  0.7787348111933640  0.1653734608285525
  0.2221940343190563  0.7783100119028734  0.8347378735733700
  0.2186372921484408  0.7822004896971098  0.4935221243077009
  0.5569929587811117  0.1115344508225775  0.1649993171579061
  0.5569865324542710  0.1188636075438459  0.8356138743883540
  0.5551520495130178  0.1053704094443723  0.4995805857769819
  0.5561614249312170  0.4444116810593979  0.1672313313888006
  0.5538490734220183  0.4467571574128358  0.8342824507621812
  0.5743650462468589  0.4264059927943381  0.4813069161915738
  0.5558869239431314  0.7779605017457809  0.1661526914445179
  0.5624785223812002  0.7906897749340451  0.8435357629212225
  0.5620821639045914  0.7883312871196883  0.4914639067168286
  0.8887750070120860  0.1118036000761786  0.1665409316979251
  0.8878430841156089  0.1124692355836744  0.8326929006440923
  0.8895424795554240  0.1110981980262827  0.4991244102247381
  0.8890932430470970  0.4436202374363020  0.1649132792862249
  0.8816029235513173  0.4433799184890766  0.8355896588568325
  0.8954363432491073  0.4456527148241357  0.4995883952521911
  0.8897119186018241  0.7788141967371748  0.1647637368520134
  0.8878791963546979  0.7779369174576632  0.8326955282962457
  0.8905183263536579  0.7790751952977765  0.4977988989312093
  0.1104770710444791  0.2220065039753692  0.1282545805624651
  0.1109056915259285  0.2246556318213399  0.7935435744214937
  0.1093829542053222  0.2196663595557452  0.4574019014634046
  0.1115362019130180  0.5563566915128884  0.1283179594438088
  0.1017957902036773  0.5515485276120130  0.8002857102235829
  0.1141294686932153  0.5580846085030496  0.4568257896948397
  0.1110971797684182  0.8894402998705820  0.1257482046261737
  0.1105075197145445  0.8900257379954718  0.7926740580413199
  0.1083986930966294  0.8924514469560957  0.4549086726210439
  0.4447923375170382  0.2230387693118056  0.1282289379265056
  0.4445804074524521  0.2269568700731061  0.7917903562401301
  0.4407279185224873  0.2084310597840138  0.4542635536954889
  0.4452981831304065  0.5553176206120191  0.1290870034618190
  0.4404544406105666  0.5600378031353133  0.8095824846352234
  0.4511421910974029  0.5495284244507441  0.4637651363369042
  0.4442519650202419  0.8890972424958689  0.1283605274214696
  0.4489453526742119  0.8987273011465714  0.8002963705130229
  0.4427012251964825  0.8866824928129535  0.4568178169953049
  0.7785257808576840  0.2220251543826007  0.1267934848738392
  0.7766285118452991  0.2237693512536243  0.7939846152451665
  0.7780911560919654  0.2227077804909785  0.4604477784155388
  0.7775550386220793  0.5558405526436756  0.1282580164726681
  0.7736145386371175  0.5559184070173933  0.7917671611787997
  0.7923386486437022  0.5600340762326415  0.4542503477944532
  0.7785728694658940  0.8900790901610727  0.1283035509643261
  0.7757681176416318  0.8894934534392919  0.7935384245822009
  0.7810387211233499  0.8913027497558087  0.4573934298596613
  0.2218124578573369  0.1111383514175976  0.2907596112396292
  0.2223141748631741  0.1127093546117778  0.9602244231592648
  0.2239391946038689  0.1168085207442612  0.6253161303314337
  0.2247706556346814  0.4446305663397914  0.2948315077304962
  0.2187343887616812  0.4432872932232161  0.9673188563208467
  0.2399897889204747  0.4458804211451703  0.6206297811867610
  0.2220190271316010  0.7787073815346718  0.2924661977044627
  0.2217994000510309  0.7785918682529491  0.9618102745600874
  0.2076871535568774  0.7931218755279864  0.6161704439284603
  0.5581944348018952  0.1098258845660762  0.2915096064484394
  0.5555455041932936  0.1148273115710926  0.9627151621005294
  0.5544451681240710  0.1025022762400844  0.6268732956151694
  0.5580838405424965  0.4424943897233792  0.2963376605122695
  0.5550020409163491  0.4455220375845184  0.9616429281267108
  0.5731761450740013  0.4275693504555331  0.6119066406988733
  0.5559550487515243  0.7757217448693595  0.2948764253798672
  0.5571591279956127  0.7817416599647407  0.9673609163110043
  0.5548236234644924  0.7608305166036582  0.6206128533835066
  0.8889427080334792  0.1117377845966782  0.2930401283276274
  0.8885437458817917  0.1118093032584945  0.9601300415826813
  0.8899862501665641  0.1106974287735415  0.6267888940661548
  0.8908635502987449  0.4425991531341622  0.2914470023557325
  0.8855338843643414  0.4447791712970543  0.9627099821095676
  0.8982828079627739  0.4462509107206483  0.6268798219876216
  0.8895731725381169  0.7789231831973610  0.2908242741681197
  0.8877551176275633  0.7781337742385480  0.9602066021873287
  0.8838927850234938  0.7767398421111609  0.6252969085316703