Al2 N2                                  
   1.0000000000000000     
     9.2872018813999997    0.0000000000000000    0.0000000000000000
    -4.6436029654000004    8.0429537929000006    0.0000000000000000
     0.0000000000000000    0.0000000000000000    9.9090690613000003
   Al   N 
    37    36
Direct
  0.1851750951627128  0.2592525485813547  0.5992111442124930
  0.0728832907436065  0.2031084768718021  0.3998105196948045
  0.1157522392767942  0.2245429511383995  0.9792286005029215
  0.1127809429490784  0.5511340480046175  0.4957076984352676
  0.1114243465773196  0.5633837973176181  0.0018227327876503
  0.1127809429490784  0.8949805589444694  0.4957076984352676
  0.1114243465773196  0.8813742132597024  0.0018227327876503
  0.4301069427215445  0.2304126093609756  0.5055598922772360
  0.4582240560855954  0.2268839844233276  0.0033901246925737
  0.4301069427215445  0.5330279743605717  0.5055598922772360
  0.4582240560855954  0.5646737126622777  0.0033901246925737
  0.4452262734906164  0.8892799872453051  0.4995244581113458
  0.4485595609517609  0.8909466309758773  0.0017792277227800
  0.7751555678459192  0.2186886507566653  0.4956859983257412
  0.7785651136213068  0.2267272034217276  0.9946595765102877
  0.7802410616915063  0.5567873368457555  0.4981421658853916
  0.7826609071093653  0.5579972595546846  0.9983487178388282
  0.7751555678459192  0.8898005880892527  0.4956859983257412
  0.7785651136213068  0.8851715811995770  0.9946595765102877
  0.2267185285781098  0.1057125699738965  0.2290523278126425
  0.2441274173341833  0.1069241181177437  0.7762599711840710
  0.2267185285781098  0.4543389526042090  0.2290523278126425
  0.2441274173341833  0.4705362932164282  0.7762599711840710
  0.2226258296580793  0.7779794228290383  0.2543668930638469
  0.2290531747213887  0.7811930953606930  0.7456108510571103
  0.5551737594586162  0.1135977527953086  0.2562582276426428
  0.5667924936303370  0.1120076768843446  0.7494088082558497
  0.5597366184519881  0.4465348172259928  0.2513019844509924
  0.5624994603447538  0.4479162381723792  0.7510074555344397
  0.5551737594586162  0.7749090296633091  0.2562582276426428
  0.5667924936303370  0.7881178397459867  0.7494088082558497
  0.8633122625977979  0.0983226167988940  0.2163690021001095
  0.9034638091126297  0.1183983900563135  0.7470209686013292
  0.8885969793912679  0.4454735777934136  0.2494543022471852
  0.8956977000035299  0.4466137593868287  0.7451094667841208
  0.8885969793912679  0.7764563875978564  0.2494543022471852
  0.8956977000035299  0.7824169266167036  0.7451094667841208
  0.1026003998631850  0.2179670314315949  0.1949454341265433
  0.1346918780984055  0.2340127705492051  0.7778326331108578
  0.1076861174624140  0.5611958555341120  0.1878641889173127
  0.1210609346583432  0.5561410923452275  0.6907473327623839
  0.1076861174624140  0.8798239259282964  0.1878641889173127
  0.1210609346583432  0.8982535063131170  0.6907473327623839
  0.4518828241107159  0.2272092161001950  0.1896005344094441
  0.4576010099054245  0.2228613346170467  0.7025735694442715
  0.4518828241107159  0.5580072490105243  0.1896005344094441
  0.4576010099054245  0.5680733162883880  0.7025735694442715
  0.4457740901532519  0.8895538955766263  0.1939826688706962
  0.4505927233786385  0.8919632121893125  0.6904057030201535
  0.7710125032594043  0.2294254196208558  0.1814776231670621
  0.7872932218615162  0.2239173016873575  0.6888052238374743
  0.7804049149535791  0.5568692634767950  0.1884113586611406
  0.7854600967050472  0.5593968543525256  0.6887946377116008
  0.7710125032594043  0.8749207546385468  0.1814776231670621
  0.7872932218615162  0.8967095911741567  0.6888052238374743
  0.2176204767924294  0.1022528801267238  0.4152012743618102
  0.2330017984976898  0.1051883191743566  0.9636140293317375
  0.2176204767924294  0.4487005906657084  0.4152012743618102
  0.2330017984976898  0.4611464733233359  0.9636140293317375
  0.2204580957133962  0.7768955558566970  0.4443491473172403
  0.2274908588089350  0.7804119374044701  0.9366304351688106
  0.5479610781137086  0.1143301011030853  0.4462676065091755
  0.5593942425656949  0.1102836301268721  0.9393078695386476
  0.5639347531938952  0.4486338845969463  0.4383645015139614
  0.5614708924664743  0.4474019542332394  0.9416446982364950
  0.5479610781137086  0.7669640000106108  0.4462676065091755
  0.5593942425656949  0.7824436354388176  0.9393078695386476
  0.8432329302776161  0.0882829506388031  0.4017801136015349
  0.8841439637479469  0.1087384673739686  0.9492177198216760
  0.8894829208620710  0.4433793250834917  0.4402707407034133
  0.8935846393770490  0.4480733112367484  0.9353601215934876
  0.8894829208620710  0.7794365817785812  0.4402707407034133
  0.8935846393770490  0.7788443141403028  0.9353601215934876