Al2 N2                                  
   1.0000000000000000     
     9.2872018813999997    0.0000000000000000    0.0000000000000000
    -4.6436018943999997    8.0429544112000002    0.0000000000000000
     0.0000000000000000    0.0000000000000000   14.8636035919000005
   Al   N 
    55    54
Direct
  0.3164381667362923  0.2995430004725853  0.5872347526971280
  0.1024855036264551  0.2248734697426385  0.3197038402260534
  0.1112339286696500  0.2215644353392566 -0.0003715477740338
  0.0862150664716700  0.2115784154935183  0.6850534722816416
  0.1110868133934343  0.5575701348145887  0.3314303076118060
  0.1100092540581597  0.5563253575639783  0.0006276099723289
  0.1112349023923761  0.5551123104781491  0.6648857495074961
  0.1098366830796921  0.8863403811593781  0.3297167381224590
  0.1112202671314957  0.8891075492629855 -0.0005358702767863
  0.1106369941405961  0.8879410032811866  0.6698056170690023
  0.4557209671161835  0.2248734697426385  0.3197038402260534
  0.4436635076696063  0.2215644353392566 -0.0003715477740338
  0.4586963500218478  0.2115784154935183  0.6850534722816416
  0.4455515014790335  0.5577709999580646  0.3276500142181099
  0.4450956406486616  0.5568592782973207  0.0010787273451595
  0.4503408730596997  0.5673497431193970  0.6735135656549200
  0.4455210603824935  0.8896164101013979  0.3313699522973902
  0.4433533592918277  0.8864928914790251  0.0008126018395100
  0.4438945744378988  0.8876995369953968  0.6663156992254264
  0.7770639767824444  0.2207938955648976  0.3317025890873729
  0.7789490947886404  0.2245641315772896  0.0009095617720514
  0.7772276927381638  0.2211213274763368  0.6658879418222731
  0.7798163514211528  0.5575701348145887  0.3314303076118060
  0.7796491335058177  0.5563253575639783  0.0006276099723289
  0.7772104380857711  0.5551123104781491  0.6648857495074961
  0.7774283647189053  0.8896164101013979  0.3313699522973902
  0.7764725471871986  0.8864928914790251  0.0008126018395100
  0.7771379775574990  0.8876995369953968  0.6663156992254264
  0.2222432251013297  0.1111534502026562  0.1652101211413105
  0.2210942722379975  0.1088555444759917  0.8318122437698672
  0.2322305367464039  0.1311280734928046  0.4592700927107434
  0.2226861711137176  0.4472314849243692  0.1633117541459105
  0.2215069309960667  0.4471532829584933  0.8380512535025338
  0.2194294335992178  0.4418594435036183  0.4867209273254903
  0.2224023586107376  0.7782114242112640  0.1656376679524266
  0.2216306739522914  0.7761356604170381  0.8343378775462477
  0.2239509211971589  0.7835613996668944  0.4982624887575806
  0.5572016792768153  0.1093455642195061  0.1622666761071527
  0.5592122282775437  0.1076505392084851  0.8394745506072803
  0.5569049511105642  0.1112550480420723  0.4968454781027346
  0.5578793118106523  0.4472314849243692  0.1633117541459105
  0.5589803499624272  0.4471532829584933  0.8380512535025338
  0.5557640079044006  0.4418594435036183  0.4867209273254903
  0.5559469224190012  0.7785598758379995  0.1660590165394628
  0.5561592866800504  0.7789846043601005  0.8349110406204805
  0.5557710896577959  0.7782082103155892  0.4972095836847080
  0.8854778989426852  0.1093455642195061  0.1622666761071527
  0.8817723249309363  0.1076505392084851  0.8394745506072803
  0.8876841109315031  0.1112550480420723  0.4968454781027346
  0.8890291697960763  0.4447243105921591  0.1668157402840618
  0.8889965515628976  0.4446590741258032  0.8321903425705999
  0.8889677805102215  0.4446015320204509  0.4976994195403584
  0.8891420516005293  0.7782114242112640  0.1656376679524266
  0.8878379724647494  0.7761356604170381  0.8343378775462477
  0.8929434644697374  0.7835613996668944  0.4982624887575806
  0.1111388963247373  0.2225099930705268  0.1276792736079987
  0.1040659970464517  0.2235674062052281  0.8065350888304973
  0.0924265000085827  0.2239749799577043  0.4430301440886152
  0.1097348018429611  0.5566485136489212  0.1267725414803324
  0.1119584690024761  0.5547600545173349  0.7921570956350232
  0.1120400336704865  0.5604525062017742  0.4598605206855729
  0.1114720105462230  0.8896110360924403  0.1270664478478617
  0.1080896313723140  0.8828462777446224  0.7969335680800558
  0.1151908827920177  0.8970487805840300  0.4581438220910628
  0.4447040977457893  0.2225099930705268  0.1276792736079987
  0.4528344101587762  0.2235674062052281  0.8065350888304973
  0.4648814809491215  0.2239749799577043  0.4430301440886152
  0.4451766975674228  0.5570213921348433  0.1268954143539612
  0.4441602435216889  0.5549884840433754  0.7973995329988518
  0.4469266167449998  0.5605212304899971  0.4548062486814899
  0.4432727811927494  0.8865917737316565  0.1262883487856470
  0.4445971724394589  0.8888760356191064  0.7938306513511418
  0.4452755823757539  0.8894694571657387  0.4594752383269765
  0.7793250307808870  0.2253160035617832  0.1258213922530324
  0.7770617340987206  0.2207894101974495  0.7936206353007558
  0.7779943530803520  0.2226546481607135  0.4599410037343716
  0.7802467418059587  0.5566485136489212  0.1267725414803324
  0.7761346155148570  0.5547600545173349  0.7921570956350232
  0.7817455025312862  0.5604525062017742  0.4598605206855729
  0.7766520075389081  0.8865917737316565  0.1262883487856470
  0.7776118781796491  0.8888760356191064  0.7938306513511418
  0.7775268897899852  0.8894694571657387  0.4594752383269765
  0.2234099348943957  0.1134868697887881  0.2950385743724890
  0.2219637922134454  0.1105945844268879  0.9606412659874968
  0.2267741126866721  0.1202152253733409  0.6636297253269804
  0.2233288553802010  0.4494903474035909  0.2899177133434988
  0.2226391270553479  0.4462051182975800  0.9636333547864165
  0.2230722649972396  0.4336961888156754  0.6284420927552785
  0.2230595911459504  0.7789105809557401  0.2927005830307882
  0.2223332409901275  0.7772391203689242  0.9607462830664729
  0.2222065315162734  0.7783845835051503  0.6263974871321847
  0.5590620674649284  0.1071480550616102  0.2874073975506389
  0.5565338163351761  0.1092528232702250  0.9644140954084339
  0.5557950033317473  0.1090020567760968  0.6261742471900690
  0.5594954900233908  0.4494903474035909  0.2899177133434988
  0.5568999892422331  0.4462051182975800  0.9636333547864165
  0.5439579218184362  0.4336961888156754  0.6284420927552785
  0.5562805425114866  0.7792271160229719  0.2922865863729958
  0.5555649968834060  0.7777960247668110  0.9605310879424932
  0.5555301595456316  0.7777263500912607  0.6260693318679856
  0.8814200015966761  0.1071480550616102  0.2874073975506389
  0.8860530209350439  0.1092528232702250  0.9644140954084339
  0.8865410674443441  0.1090020567760968  0.6261742471900690
  0.8888179435140021  0.4443018580280117  0.2939422744142811
  0.8891390752497018  0.4449441214994124  0.9588663691620308
  0.8882399739678219  0.4431459189356508  0.6261611512573316
  0.8891839758097911  0.7789105809557401  0.2927005830307882
  0.8882388653787980  0.7772391203689242  0.9607462830664729
  0.8895110379888796  0.7783845835051503  0.6263974871321847