Al2 N2                                  
   1.0000000000000000     
     9.2872018813999997    0.0000000000000000    0.0000000000000000
    -4.6436029654000004    8.0429537929000006    0.0000000000000000
     0.0000000000000000    0.0000000000000000    9.9090690613000003
   Al   N 
    37    36
Direct
  0.6669490509626360  0.3330542820373663  0.8964070403206782
  0.1107590460614504  0.2215622924468675  0.5030099575799639
  0.1113129862026614  0.2228137009475447  0.9976997336882817
  0.1125056390750993  0.5563121878543562  0.4970947109285478
  0.1149780298357055  0.5574881652944502  0.9955918166380443
  0.1107234267034548  0.8892765812965385  0.5028374622912165
  0.1114205897073025  0.8885794182926912  0.9975935369234029
  0.4387070182833824  0.2194313041825335  0.4891898175627139
  0.4389388331339943  0.2191284680693779  0.0218694359368967
  0.4437772147787191  0.5562227562212819  0.4972792651208311
  0.4426590589974375  0.5573409120025565  0.9957826143603615
  0.4436877831456447  0.8874943689248941  0.4970947109285478
  0.4425118057055508  0.8850219781642881  0.9955918166380443
  0.7805886988446754  0.2194113011553245  0.4890725475439800
  0.7803659496362126  0.2196340503637874  0.0225596946106487
  0.7805686958174668  0.5612929527166187  0.4891898175627139
  0.7808715319306223  0.5610611378660071  0.0218694359368967
  0.7784377075531326  0.8892409619385433  0.5030099575799639
  0.7771862990524554  0.8886870217973322  0.9976997336882817
  0.2136414711550368  0.1068363019124737  0.2529993437069802
  0.2231555373340011  0.1115612118690039  0.7500907121453558
  0.2218442949325970  0.4437932576536043  0.2474704917644092
  0.2227368857923712  0.4453498747486185  0.7470546790906867
  0.2219029001557588  0.7780970998442411  0.2473637510807542
  0.2226527239784850  0.7773472760215153  0.7469545206816842
  0.5550412631303140  0.1101304171454938  0.2505847264191149
  0.5601092703945150  0.1204494561191485  0.7314966058819380
  0.5549637696272854  0.4450362013727157  0.2505621114910855
  0.5604920775470554  0.4395078934529458  0.7319670168533350
  0.5562067133463969  0.7781557050674029  0.2474704917644092
  0.5546500962513827  0.7772631142076291  0.7470546790906867
  0.8933362920248654  0.1066637159751280  0.2533080303570835
  0.8883131786058091  0.1116868293941844  0.7501455739727444
  0.8898695908544997  0.4449587078696873  0.2505847264191149
  0.8795505518808453  0.4398907006054862  0.7314966058819380
  0.8931637060875199  0.7863585288449634  0.2529993437069802
  0.8884387961309895  0.7768444626659989  0.7500907121453558
  0.1111732033155860  0.2223427264927113  0.1882793702489622
  0.1108515273063242  0.2218505483342746  0.6935804726044804
  0.1110773924511412  0.5555404841334730  0.1879087098054537
  0.1120804083831831  0.5560003437058234  0.6850924929107477
  0.1111701429023544  0.8888298650976392  0.1881902287877859
  0.1108964421214564  0.8891035658785372  0.6934471258194946
  0.4352346220373975  0.2176942423843468  0.2065183421564883
  0.4288007264811749  0.2144206850167663  0.6732786971759807
  0.4443533594929011  0.5556466115071003  0.1880548152560954
  0.4441865437333731  0.5558134272666282  0.6854138496228732
  0.4444594868665282  0.8889226155488522  0.1879087098054537
  0.4439996272941779  0.8879195996168106  0.6850924929107477
  0.7825564394686502  0.2174435605313498  0.2071526000681971
  0.7854928888429856  0.2145071111570144  0.6732541252052811
  0.7823057576156532  0.5647653489626039  0.2065183421564883
  0.7855793149832337  0.5711992445188263  0.6732786971759807
  0.7776572735072887  0.8888268046844078  0.1882793702489622
  0.7781494516657255  0.8891484806936695  0.6935804726044804
  0.2146229961282323  0.1073755366540701  0.4393308689826413
  0.2241517223149137  0.1121327354602835  0.9434128575114319
  0.2214267832537163  0.4428527990735691  0.4377283427391187
  0.2223348351902412  0.4444406902132321  0.9387962411638174
  0.2213780372344375  0.7786219627655624  0.4375982512915352
  0.2222218543269636  0.7777781456730364  0.9387167788253585
  0.5544764065225011  0.1091429045710176  0.4385832288573203
  0.5478926893630288  0.0966879099222993  0.9300999461078454
  0.5545515280384258  0.4454484429615755  0.4385270316780935
  0.5488198751605123  0.4511800958394890  0.9311416669432901
  0.5571471719264320  0.7785732167462835  0.4377283427391187
  0.5555592807867690  0.7776651648097589  0.9387962411638174
  0.8927040710364623  0.1072959369635312  0.4395829455210657
  0.8876784581985273  0.1123215498014665  0.9435515011587284
  0.8908571034289758  0.4455235644775000  0.4385832288573203
  0.9033120980776944  0.4521072816369724  0.9300999461078454
  0.8926244713459236  0.7853770038717677  0.4393308689826413
  0.8878672725397101  0.7758482776850864  0.9434128575114319