Al2 N2
1.0
        9.2872018814         0.0000000000         0.0000000000
       -4.6436018944         8.0429544112         0.0000000000
        0.0000000000         0.0000000000        14.8636035919
   Al    N
   55    54
Direct
     0.333333333         0.333333333         0.563333333
     0.111111000         0.222222000         0.333003998
     0.111111000         0.222222000         0.999670684
     0.111111000         0.222222000         0.666337311
     0.111111000         0.555555999         0.333003998
     0.111111000         0.555555999         0.999670684
     0.111111000         0.555555999         0.666337311
     0.111111000         0.888889015         0.333003998
     0.111111000         0.888889015         0.999670684
     0.111111000         0.888889015         0.666337311
     0.444444001         0.222222000         0.333003998
     0.444444001         0.222222000         0.999670684
     0.444444001         0.222222000         0.666337311
     0.444444001         0.555555999         0.333003998
     0.444444001         0.555555999         0.999670684
     0.444444001         0.555555999         0.666337311
     0.444444001         0.888889015         0.333003998
     0.444444001         0.888889015         0.999670684
     0.444444001         0.888889015         0.666337311
     0.777778029         0.222222000         0.333003998
     0.777778029         0.222222000         0.999670684
     0.777778029         0.222222000         0.666337311
     0.777778029         0.555555999         0.333003998
     0.777778029         0.555555999         0.999670684
     0.777778029         0.555555999         0.666337311    
     0.777778029         0.888889015         0.333003998
     0.777778029         0.888889015         0.999670684
     0.777778029         0.888889015         0.666337311
     0.222222000         0.111111000         0.166336998
     0.222222000         0.111111000         0.833003640
     0.222222000         0.111111000         0.452670327
     0.222222000         0.444444001         0.166336998
     0.222222000         0.444444001         0.833003640
     0.222222000         0.444444001         0.499670327
     0.222222000         0.777778029         0.166336998
     0.222222000         0.777778029         0.833003640
     0.222222000         0.777778029         0.499670327
     0.555555999         0.111111000         0.166336998
     0.555555999         0.111111000         0.833003640
     0.555555999         0.111111000         0.499670327
     0.555555999         0.444444001         0.166336998
     0.555555999         0.444444001         0.833003640
     0.555555999         0.444444001         0.499670327
     0.555555999         0.777778029         0.166336998
     0.555555999         0.777778029         0.833003640
     0.555555999         0.777778029         0.499670327
     0.888889015         0.111111000         0.166336998
     0.888889015         0.111111000         0.833003640
     0.888889015         0.111111000         0.499670327
     0.888889015         0.444444001         0.166336998
     0.888889015         0.444444001         0.833003640
     0.888889015         0.444444001         0.499670327
     0.888889015         0.777778029         0.166336998
     0.888889015         0.777778029         0.833003640
     0.888889015         0.777778029         0.499670327
     0.111111000         0.222222000         0.126995996
     0.111111000         0.222222000         0.793662667
     0.111111000         0.222222000         0.460329324
     0.111111000         0.555555999         0.126995996
     0.111111000         0.555555999         0.793662667
     0.111111000         0.555555999         0.460329324
     0.111111000         0.888889015         0.126995996
     0.111111000         0.888889015         0.793662667
     0.111111000         0.888889015         0.460329324
     0.444444001         0.222222000         0.126995996
     0.444444001         0.222222000         0.793662667
     0.444444001         0.222222000         0.460329324
     0.444444001         0.555555999         0.126995996
     0.444444001         0.555555999         0.793662667
     0.444444001         0.555555999         0.460329324
     0.444444001         0.888889015         0.126995996
     0.444444001         0.888889015         0.793662667
     0.444444001         0.888889015         0.460329324
     0.777778029         0.222222000         0.126995996
     0.777778029         0.222222000         0.793662667
     0.777778029         0.222222000         0.460329324
     0.777778029         0.555555999         0.126995996
     0.777778029         0.555555999         0.793662667
     0.777778029         0.555555999         0.460329324
     0.777778029         0.888889015         0.126995996
     0.777778029         0.888889015         0.793662667
     0.777778029         0.888889015         0.460329324
     0.222222000         0.111111000         0.293662995
     0.222222000         0.111111000         0.960329652
     0.222222000         0.111111000         0.626996338
     0.222222000         0.444444001         0.293662995
     0.222222000         0.444444001         0.960329652
     0.222222000         0.444444001         0.626996338
     0.222222000         0.777778029         0.293662995
     0.222222000         0.777778029         0.960329652
     0.222222000         0.777778029         0.626996338
     0.555555999         0.111111000         0.293662995
     0.555555999         0.111111000         0.960329652
     0.555555999         0.111111000         0.626996338
     0.555555999         0.444444001         0.293662995
     0.555555999         0.444444001         0.960329652
     0.555555999         0.444444001         0.626996338
     0.555555999         0.777778029         0.293662995
     0.555555999         0.777778029         0.960329652
     0.555555999         0.777778029         0.626996338
     0.888889015         0.111111000         0.293662995
     0.888889015         0.111111000         0.960329652
     0.888889015         0.111111000         0.626996338
     0.888889015         0.444444001         0.293662995
     0.888889015         0.444444001         0.960329652
     0.888889015         0.444444001         0.626996338
     0.888889015         0.777778029         0.293662995
     0.888889015         0.777778029         0.960329652
     0.888889015         0.777778029         0.626996338