-20.0% N(Distort)=2 ~[0.1,0.2,0.5]      
   1.0000000000000000     
     9.2872018813999997    0.0000000000000000    0.0000000000000000
    -4.6436029654000004    8.0429537929000006    0.0000000000000000
     0.0000000000000000    0.0000000000000000    9.9090690613000003
   Al   Si   N 
    35     1    36
Direct
  0.1141373318305163  0.2247738462946936  0.9976923436403194
  0.1133745774171810  0.5576728277144013  0.4989011261457508
  0.1141501317056536  0.5580644892669804  0.9982545924479814
  0.1133619264985675  0.8908264363274602  0.4988560874564027
  0.1142469609270443  0.8916074181299291  0.9981583561833168
  0.4483589608212983  0.2258613736606001  0.4988313228987892
  0.4475332428425791  0.2248459261863959  0.9981709029969896
  0.4483034524449360  0.5578670570056918  0.4988250917590946
  0.4476422226659352  0.5580775977271277  0.9982591174081132
  0.4475975304694085  0.8913915262799350  0.4992064133072624
  0.4475785084550696  0.8914541118203713  0.9980529215575712
  0.7815269448470363  0.2258795929771225  0.4988993942492170
  0.7809825029030336  0.2248643971843998  0.9982411911720416
  0.7810505861091046  0.5581755689791431  0.4984614739336397
  0.7809919652993877  0.5583022370884930  0.9986878343725798
  0.7813944759749076  0.8909323359197604  0.4988367003908861
  0.7809779358358265  0.8914832638643262  0.9981968685192848
  0.2246479362187565  0.1140541567406543  0.2471182557946175
  0.2265626132192466  0.1132948239492420  0.7473672205656963
  0.2247482090338616  0.4456667304660475  0.2470036916280789
  0.2264997803313499  0.4490662909799977  0.7476350684160050
  0.2258530161269314  0.7805029104306639  0.2480399859038229
  0.2256574123699533  0.7807728542057168  0.7485247381667112
  0.5583399034524590  0.1129759644681106  0.2481430130272436
  0.5589791923300071  0.1139275424903968  0.7484759029327209
  0.5586980330518032  0.4468899770282014  0.2482216952239080
  0.5591419284561008  0.4475642741998907  0.7489801783178243
  0.5584081336474773  0.7805621543759007  0.2480313863134677
  0.5589046517240485  0.7808067966225700  0.7484997199791384
  0.8929448030065122  0.1140594275330437  0.2472202245401720
  0.8907857342870298  0.1132398755622745  0.7473673182359231
  0.8919174024629305  0.4470463846911219  0.2481656560847675
  0.8922018071546247  0.4475072211305388  0.7490328978437497
  0.8919260108129764  0.7801767948896868  0.2482503282203044
  0.8921396471595261  0.7804496650408205  0.7489268177092446
  0.1144371057464239  0.2249025679631798  0.4990530324092911
  0.1140100203355590  0.2245503391364493  0.1874886624382139
  0.1146855132731130  0.2252848163004930  0.6780611327261505
  0.1144299100809341  0.5575168390175391  0.1894746741914063
  0.1143591898341177  0.5581891518458565  0.6889193165417393
  0.1144141480299930  0.8919953276725263  0.1894222004420072
  0.1142863339801322  0.8919395063629784  0.6888723657372626
  0.4467304100712777  0.2243659849783697  0.1894676709707153
  0.4479331143125532  0.2254186388707524  0.6888334844007400
  0.4468967387267195  0.5575406632076771  0.1894675702999527
  0.4477987528477267  0.5582823576627461  0.6888514447442344
  0.4475357425740811  0.8913270306564512  0.1884714975962303
  0.4478357828776905  0.8917825521094275  0.6897298357587516
  0.7812603402852673  0.2244814639765617  0.1895115878465051
  0.7815857674255902  0.2253683254049051  0.6888743752034565
  0.7808554276744712  0.5581102821814473  0.1893036184720746
  0.7812078931282452  0.5584948367166737  0.6891735925137255
  0.7812904615096536  0.8920238957110579  0.1894778111670153
  0.7815001896555592  0.8919390088741097  0.6888279095808482
  0.2188807954488960  0.1202955056157546  0.4416966477739563
  0.2249941356634595  0.1142895498337027  0.9374254998158355
  0.2189569502070147  0.4338708116389464  0.4415682995430585
  0.2250143741857667  0.4463157060477735  0.9376610149699508
  0.2254594204433542  0.7802566039600891  0.4386566893157675
  0.2251311574379619  0.7803021744744173  0.9390890958442006
  0.5588208599040368  0.1136288028860605  0.4387651061801862
  0.5588644731523672  0.1139937006253157  0.9390568097115187
  0.5586446780640643  0.4470122583701878  0.4388233727081417
  0.5589022009418930  0.4471997350074029  0.9393538099746409
  0.5588164700997248  0.7804690179869765  0.4386222912593143
  0.5588500471323125  0.7802761311597467  0.9390476394979749
  0.9053688194586554  0.1203415965295020  0.4417358476654758
  0.8928505280392718  0.1140883467483119  0.9374533497453698
  0.8922739095424529  0.4469590080683152  0.4388180462761638
  0.8919864789047683  0.4471304774870285  0.9394017804606776
  0.8922684019511204  0.7806648739984497  0.4388493299697507
  0.8920906160216328  0.7804638624112062  0.9392876250669213

  0.00000000E+00  0.00000000E+00  0.00000000E+00
  0.00000000E+00  0.00000000E+00  0.00000000E+00
  0.00000000E+00  0.00000000E+00  0.00000000E+00
  0.00000000E+00  0.00000000E+00  0.00000000E+00
  0.00000000E+00  0.00000000E+00  0.00000000E+00
  0.00000000E+00  0.00000000E+00  0.00000000E+00
  0.00000000E+00  0.00000000E+00  0.00000000E+00
  0.00000000E+00  0.00000000E+00  0.00000000E+00
  0.00000000E+00  0.00000000E+00  0.00000000E+00
  0.00000000E+00  0.00000000E+00  0.00000000E+00
  0.00000000E+00  0.00000000E+00  0.00000000E+00
  0.00000000E+00  0.00000000E+00  0.00000000E+00
  0.00000000E+00  0.00000000E+00  0.00000000E+00
  0.00000000E+00  0.00000000E+00  0.00000000E+00
  0.00000000E+00  0.00000000E+00  0.00000000E+00
  0.00000000E+00  0.00000000E+00  0.00000000E+00
  0.00000000E+00  0.00000000E+00  0.00000000E+00
  0.00000000E+00  0.00000000E+00  0.00000000E+00
  0.00000000E+00  0.00000000E+00  0.00000000E+00
  0.00000000E+00  0.00000000E+00  0.00000000E+00
  0.00000000E+00  0.00000000E+00  0.00000000E+00
  0.00000000E+00  0.00000000E+00  0.00000000E+00
  0.00000000E+00  0.00000000E+00  0.00000000E+00
  0.00000000E+00  0.00000000E+00  0.00000000E+00
  0.00000000E+00  0.00000000E+00  0.00000000E+00
  0.00000000E+00  0.00000000E+00  0.00000000E+00
  0.00000000E+00  0.00000000E+00  0.00000000E+00
  0.00000000E+00  0.00000000E+00  0.00000000E+00
  0.00000000E+00  0.00000000E+00  0.00000000E+00
  0.00000000E+00  0.00000000E+00  0.00000000E+00
  0.00000000E+00  0.00000000E+00  0.00000000E+00
  0.00000000E+00  0.00000000E+00  0.00000000E+00
  0.00000000E+00  0.00000000E+00  0.00000000E+00
  0.00000000E+00  0.00000000E+00  0.00000000E+00
  0.00000000E+00  0.00000000E+00  0.00000000E+00
  0.00000000E+00  0.00000000E+00  0.00000000E+00
  0.00000000E+00  0.00000000E+00  0.00000000E+00
  0.00000000E+00  0.00000000E+00  0.00000000E+00
  0.00000000E+00  0.00000000E+00  0.00000000E+00
  0.00000000E+00  0.00000000E+00  0.00000000E+00
  0.00000000E+00  0.00000000E+00  0.00000000E+00
  0.00000000E+00  0.00000000E+00  0.00000000E+00
  0.00000000E+00  0.00000000E+00  0.00000000E+00
  0.00000000E+00  0.00000000E+00  0.00000000E+00
  0.00000000E+00  0.00000000E+00  0.00000000E+00
  0.00000000E+00  0.00000000E+00  0.00000000E+00
  0.00000000E+00  0.00000000E+00  0.00000000E+00
  0.00000000E+00  0.00000000E+00  0.00000000E+00
  0.00000000E+00  0.00000000E+00  0.00000000E+00
  0.00000000E+00  0.00000000E+00  0.00000000E+00
  0.00000000E+00  0.00000000E+00  0.00000000E+00
  0.00000000E+00  0.00000000E+00  0.00000000E+00
  0.00000000E+00  0.00000000E+00  0.00000000E+00
  0.00000000E+00  0.00000000E+00  0.00000000E+00
  0.00000000E+00  0.00000000E+00  0.00000000E+00
  0.00000000E+00  0.00000000E+00  0.00000000E+00
  0.00000000E+00  0.00000000E+00  0.00000000E+00
  0.00000000E+00  0.00000000E+00  0.00000000E+00
  0.00000000E+00  0.00000000E+00  0.00000000E+00
  0.00000000E+00  0.00000000E+00  0.00000000E+00
  0.00000000E+00  0.00000000E+00  0.00000000E+00
  0.00000000E+00  0.00000000E+00  0.00000000E+00
  0.00000000E+00  0.00000000E+00  0.00000000E+00
  0.00000000E+00  0.00000000E+00  0.00000000E+00
  0.00000000E+00  0.00000000E+00  0.00000000E+00
  0.00000000E+00  0.00000000E+00  0.00000000E+00
  0.00000000E+00  0.00000000E+00  0.00000000E+00
  0.00000000E+00  0.00000000E+00  0.00000000E+00
  0.00000000E+00  0.00000000E+00  0.00000000E+00
  0.00000000E+00  0.00000000E+00  0.00000000E+00
  0.00000000E+00  0.00000000E+00  0.00000000E+00
  0.00000000E+00  0.00000000E+00  0.00000000E+00
