Al   Si   N                             
    1.000000000000000     
     9.2872018813999997    0.0000000000000000    0.0000000000000000
    -4.6436029653999995    8.0429537929000006    0.0000000000000000
     0.0000000000000000    0.0000000000000000    9.9090690613000003
   Al   Si   N 
    35     1    36
Direct
  0.1145436287303872  0.2245418901148296  0.9968924470627065
  0.1039663342808967  0.5373021072473309  0.5028696316978511
  0.1144074524027808  0.5583137471742941  0.9974322255667938
  0.1136947318765579  0.8926546402187662  0.4979149701357081
  0.1146509642596040  0.8919879126418260  0.9990464594842214
  0.4466153454163814  0.2255590918408177  0.4979046216187589
  0.4471820895314061  0.2244990727759431  0.9990235649196799
  0.4493501259064944  0.5577785594294794  0.4968036300399196
  0.4479328434435252  0.5583506954615899  0.9967227148135904
  0.4472808129510903  0.8919161850919618  0.4982044500272511
  0.4474047237733870  0.8917037001976321  0.9985940199892885
  0.8019776227612635  0.2352210355325826  0.5028950592077597
  0.7807561658698408  0.2246771210571319  0.9974023258895977
  0.7810603073008716  0.5581866662924134  0.4973501953619144
  0.7807361596472118  0.5584679954500334  0.9975465714306981
  0.7814262459012857  0.8898588572390601  0.4968310180141806
  0.7808109706807785  0.8912914969296437  0.9967264423879371
  0.2236054175292070  0.1154444993438837  0.2508276733026243
  0.2271977623295912  0.1123223418732349  0.7476679259638388
  0.2272661260524090  0.4465166711478069  0.2455716591618487
  0.2234934123276024  0.4470033339850495  0.7460700063877849
  0.2251407096768497  0.7794445416349624  0.2499717313086175
  0.2259385068285233  0.7817896927939911  0.7485873961166796
  0.5595121335863003  0.1138729211946662  0.2499816864308919
  0.5577601727086675  0.1135459473292619  0.7485672066653885
  0.5588682627882372  0.4475270679989540  0.2484581787393363
  0.5586709158109469  0.4467894919965483  0.7476277929687802
  0.5587572586016628  0.7803044655793857  0.2478246499286769
  0.5585822227326285  0.7809019664945643  0.7471717132564729
  0.8924873684705966  0.1118274519329532  0.2455808689451423
  0.8925505438311709  0.1160017648539759  0.7460176813015117
  0.8912957424776559  0.4476897060177877  0.2470734216736831
  0.8929252625709182  0.4465913570044521  0.7479298625715728
  0.8915645594816874  0.7802650953977844  0.2484650163958110
  0.8926940224971665  0.7808235003749427  0.7476399148840054
  0.0966071364144328  0.2426065354002338  0.5071782719493578
  0.1141608154521974  0.2248765456458337  0.1861540434353897
  0.1178485511991242  0.2217211130233219  0.6866348284790307
  0.1149412335597192  0.5577079187486462  0.1884611739261406
  0.1161359591928572  0.5625551279191424  0.6939404202232197
  0.1145940041798975  0.8924048266979792  0.1904493048923092
  0.1144228421162766  0.8915751145884286  0.6890209633711069
  0.4467044911976298  0.2245445163085860  0.1904289960135636
  0.4479535653365573  0.2250672180900846  0.6890031826466644
  0.4490809879490508  0.5590682128743517  0.1863771296716732
  0.4471464852346837  0.5580506139239566  0.6883590889362100
  0.4476862070453898  0.8913744230805516  0.1892141425196497
  0.4476337358924677  0.8918379530095476  0.6896599152122185
  0.7812967818752016  0.2241182360710920  0.1884489386319439
  0.7770050682091272  0.2233860769331443  0.6939496559320325
  0.7802716540129676  0.5589234972753142  0.1870665703000918
  0.7811227775377708  0.5584110287697978  0.6892755569534653
  0.7800679464398035  0.8901030003162265  0.1863966259595108
  0.7814461021528543  0.8923335181965451  0.6883586340074668
  0.2166644344061910  0.1225874551579746  0.4439465374310282
  0.2257524962447458  0.1133853928984505  0.9389633171489526
  0.2334702939206983  0.4423679576390611  0.4329703707220402
  0.2252032864903326  0.4463126677270690  0.9375405137578807
  0.2238832095829565  0.7775854812935535  0.4404199833701379
  0.2256260532597372  0.7814086158908893  0.9402490876339741
  0.5615921133489857  0.1152860020712639  0.4404298533513226
  0.5576731846624298  0.1134474985985020  0.9402285641422867
  0.5596740621766303  0.4475261970285168  0.4391770002071195
  0.5584164956317699  0.4464984511946560  0.9385183878314191
  0.5588595044333713  0.7803727089629642  0.4390388134449075
  0.5584889886567197  0.7806508879997329  0.9379422356549111
  0.8967915539782088  0.1056626688920635  0.4329507228482039
  0.8927584606223791  0.1139256232156704  0.9374853330535460
  0.8877028718593826  0.4513657684253219  0.4331482928709500
  0.8918289524608768  0.4472281930704646  0.9396012643011520
  0.8916967871350001  0.7795737045879914  0.4391936162473318
  0.8926102167358226  0.7807586510786374  0.9385223718769017
 
             NaN             NaN             NaN
             NaN             NaN             NaN
             NaN             NaN             NaN
             NaN             NaN             NaN
             NaN             NaN             NaN
             NaN             NaN             NaN
             NaN             NaN             NaN
             NaN             NaN             NaN
             NaN             NaN             NaN
             NaN             NaN             NaN
             NaN             NaN             NaN
             NaN             NaN             NaN
             NaN             NaN             NaN
             NaN             NaN             NaN
             NaN             NaN             NaN
             NaN             NaN             NaN
             NaN             NaN             NaN
             NaN             NaN             NaN
             NaN             NaN             NaN
             NaN             NaN             NaN
             NaN             NaN             NaN
             NaN             NaN             NaN
             NaN             NaN             NaN
             NaN             NaN             NaN
             NaN             NaN             NaN
             NaN             NaN             NaN
             NaN             NaN             NaN
             NaN             NaN             NaN
             NaN             NaN             NaN
             NaN             NaN             NaN
             NaN             NaN             NaN
             NaN             NaN             NaN
             NaN             NaN             NaN
             NaN             NaN             NaN
             NaN             NaN             NaN
             NaN             NaN             NaN
             NaN             NaN             NaN
             NaN             NaN             NaN
             NaN             NaN             NaN
             NaN             NaN             NaN
             NaN             NaN             NaN
             NaN             NaN             NaN
             NaN             NaN             NaN
             NaN             NaN             NaN
             NaN             NaN             NaN
             NaN             NaN             NaN
             NaN             NaN             NaN
             NaN             NaN             NaN
             NaN             NaN             NaN
             NaN             NaN             NaN
             NaN             NaN             NaN
             NaN             NaN             NaN
             NaN             NaN             NaN
             NaN             NaN             NaN
             NaN             NaN             NaN
             NaN             NaN             NaN
             NaN             NaN             NaN
             NaN             NaN             NaN
             NaN             NaN             NaN
             NaN             NaN             NaN
             NaN             NaN             NaN
             NaN             NaN             NaN
             NaN             NaN             NaN
             NaN             NaN             NaN
             NaN             NaN             NaN
             NaN             NaN             NaN
             NaN             NaN             NaN
             NaN             NaN             NaN
             NaN             NaN             NaN
             NaN             NaN             NaN
             NaN             NaN             NaN
             NaN             NaN             NaN
