Al   Si   N                             
    1.000000000000000     
     9.2872018813999997    0.0000000000000000    0.0000000000000000
    -4.6436029653999995    8.0429537929000006    0.0000000000000000
     0.0000000000000000    0.0000000000000000    9.9090690613000003
   Al   Si   N 
    35     1    36
Direct
  0.1145075225966211  0.2244821152378692  0.9970548424472709
  0.1068965703041876  0.5444613299679366  0.5018584350783407
  0.1143495300708560  0.5582969364720589  0.9976070465369288
  0.1131436004203610  0.8918146541972273  0.4982089762083144
  0.1145095332135517  0.8918249814509160  0.9989772246519263
  0.4474423253234974  0.2261181479846135  0.4982102105351030
  0.4472622114547903  0.2245491943419035  0.9989377030919490
  0.4486965446165725  0.5576511238573787  0.4970959309222520
  0.4479556329755783  0.5583160951951571  0.9968644174261750
  0.4474880230385181  0.8916815304726222  0.4984979617069105
  0.4474007531157991  0.8916291101090639  0.9984671309604943
  0.7947452185814335  0.2322522431909841  0.5018831458843391
  0.7806577732988876  0.2246260526628769  0.9975815792099806
  0.7812264602662410  0.5580130719502359  0.4976148893908358
  0.7807049981793277  0.5584165168338600  0.9977547289545982
  0.7815349404821755  0.8904830305787642  0.4971363012467813
  0.7807660021018846  0.8912021933668823  0.9968966406744308
  0.2239749077034565  0.1152060344518247  0.2495936118715043
  0.2268228528687553  0.1126507816359590  0.7479700232859365
  0.2269433204714021  0.4465129297338886  0.2460368840165859
  0.2243260775117885  0.4475942390275356  0.7466256031398901
  0.2254454432127502  0.7798278518833008  0.2493507276341227
  0.2258038435054972  0.7813765107977775  0.7486558203270336
  0.5592058369695835  0.1136704278626449  0.2493452380382315
  0.5581814549711469  0.1136929712521031  0.7486265190542986
  0.5589350320026580  0.4476049994508765  0.2482977350145435
  0.5587494139343107  0.4468924813351081  0.7479094549593391
  0.5587878700125363  0.7803822548875071  0.2477623914532091
  0.5586244841274676  0.7808509923474198  0.7473775894283544
  0.8926572928971898  0.1123116059249134  0.2460329708725709
  0.8919412246325605  0.1151221847776041  0.7466245858936797
  0.8915182564110492  0.4475607925373320  0.2473073195312097
  0.8927550503968043  0.4467652704760873  0.7482780873533310
  0.8916253347472656  0.7803417892500409  0.2483041070116903
  0.8925995186892887  0.7807720391447650  0.7479458613598122
  0.1033093921050586  0.2358977535473046  0.5044533781935971
  0.1143049731848436  0.2249036269706119  0.1865798022667181
  0.1164630820424259  0.2230475528705671  0.6839728654834374
  0.1150282665640222  0.5577711533515197  0.1888072971614221
  0.1156159199297692  0.5611406150815688  0.6924473200158051
  0.1146696993871376  0.8923843345428647  0.1904720396177693
  0.1145126403884653  0.8917819446939707  0.6887411793405787
  0.4468797690862900  0.2246155618470389  0.1904439170977920
  0.4477276571372095  0.2249874075671608  0.6887254717138093
  0.4488284642467711  0.5588787397230751  0.1867880025396928
  0.4472392206776594  0.5580366492180995  0.6883132504310711
  0.4477727652507974  0.8914203751053620  0.1891218932520382
  0.4476176575854112  0.8918688847900640  0.6894677045904265
  0.7813405858254580  0.2241342524554371  0.1888077742041730
  0.7784423207018529  0.2239005814427547  0.6924471175053005
  0.7804982599341102  0.5588441889076229  0.1875186253329265
  0.7811468859710745  0.5583988961441585  0.6892102719531144
  0.7804210901337361  0.8905271573050555  0.1868326176532812
  0.7814385913510085  0.8922208377636111  0.6883215492949608
  0.2166258226425524  0.1226364413370820  0.4437366195776267
  0.2255711717536319  0.1134378499549010  0.9389085686453742
  0.2280580221226890  0.4395543671388916  0.4359174915747206
  0.2249732582482194  0.4461322154826391  0.9375627908802568
  0.2242161822073130  0.7782282664042457  0.4400613727966873
  0.2254263298745214  0.7811342701119368  0.9400419246764901
  0.5609448100667492  0.1149634738519998  0.4400638774154869
  0.5578162524894223  0.1135216129555833  0.9400034097648605
  0.5593543426135829  0.4474015507927436  0.4391461289771644
  0.5583915139767709  0.4464344624885508  0.9385647532847726
  0.5587730685861928  0.7804624459766558  0.4390345743313641
  0.5584166149298371  0.7805965722662361  0.9379679191476278
  0.8995986129289976  0.1110676806183060  0.4359070789597504
  0.8927746840826234  0.1140313798181321  0.9375419619782852
  0.8892305686597326  0.4498284638470249  0.4347702185763134
  0.8918015739537234  0.4470947834552937  0.9396298906050083
  0.8918137594145743  0.7798768478235948  0.4391579439953729
  0.8925162748433701  0.7806455881086121  0.9385878143498444
 
             NaN             NaN             NaN
             NaN             NaN             NaN
             NaN             NaN             NaN
             NaN             NaN             NaN
             NaN             NaN             NaN
             NaN             NaN             NaN
             NaN             NaN             NaN
             NaN             NaN             NaN
             NaN             NaN             NaN
             NaN             NaN             NaN
             NaN             NaN             NaN
             NaN             NaN             NaN
             NaN             NaN             NaN
             NaN             NaN             NaN
             NaN             NaN             NaN
             NaN             NaN             NaN
             NaN             NaN             NaN
             NaN             NaN             NaN
             NaN             NaN             NaN
             NaN             NaN             NaN
             NaN             NaN             NaN
             NaN             NaN             NaN
             NaN             NaN             NaN
             NaN             NaN             NaN
             NaN             NaN             NaN
             NaN             NaN             NaN
             NaN             NaN             NaN
             NaN             NaN             NaN
             NaN             NaN             NaN
             NaN             NaN             NaN
             NaN             NaN             NaN
             NaN             NaN             NaN
             NaN             NaN             NaN
             NaN             NaN             NaN
             NaN             NaN             NaN
             NaN             NaN             NaN
             NaN             NaN             NaN
             NaN             NaN             NaN
             NaN             NaN             NaN
             NaN             NaN             NaN
             NaN             NaN             NaN
             NaN             NaN             NaN
             NaN             NaN             NaN
             NaN             NaN             NaN
             NaN             NaN             NaN
             NaN             NaN             NaN
             NaN             NaN             NaN
             NaN             NaN             NaN
             NaN             NaN             NaN
             NaN             NaN             NaN
             NaN             NaN             NaN
             NaN             NaN             NaN
             NaN             NaN             NaN
             NaN             NaN             NaN
             NaN             NaN             NaN
             NaN             NaN             NaN
             NaN             NaN             NaN
             NaN             NaN             NaN
             NaN             NaN             NaN
             NaN             NaN             NaN
             NaN             NaN             NaN
             NaN             NaN             NaN
             NaN             NaN             NaN
             NaN             NaN             NaN
             NaN             NaN             NaN
             NaN             NaN             NaN
             NaN             NaN             NaN
             NaN             NaN             NaN
             NaN             NaN             NaN
             NaN             NaN             NaN
             NaN             NaN             NaN
             NaN             NaN             NaN
