Al   Si   N                             
    1.000000000000000     
     9.2872018813999997    0.0000000000000000    0.0000000000000000
    -4.6436029653999995    8.0429537929000006    0.0000000000000000
     0.0000000000000000    0.0000000000000000    9.9090690613000003
   Al   Si   N 
    35     1    36
Direct
  0.1144418528737350  0.2244059086217507  0.9972324002227646
  0.1102196192126762  0.5521352487711366  0.5004871392427869
  0.1142570185898749  0.5583741334107056  0.9978069452795342
  0.1126704304810477  0.8912553981493010  0.4985142273455662
  0.1142514739179410  0.8916374473288192  0.9990037771292363
  0.4479806905295202  0.2266055997461365  0.4985225539862337
  0.4473536204596810  0.2246728844668484  0.9989409788201156
  0.4485455840825153  0.5577675112413992  0.4976897613216900
  0.4479720753863081  0.5583255568758460  0.9968872291297006
  0.4476631335834321  0.8914762569825799  0.4987372940787205
  0.4474242694623913  0.8915593167983338  0.9984525896507934
  0.7870358244658046  0.2289283533315596  0.5005203771377565
  0.7804554199698345  0.2245704465044975  0.9977887488122843
  0.7811648036074338  0.5580610535604366  0.4980644229864139
  0.7806568139733897  0.5583769117178909  0.9978407144600209
  0.7814017068129334  0.8906070755761151  0.4977622760810913
  0.7806843125962954  0.8911351028884426  0.9969451887766679
  0.2242291208012217  0.1151119859534950  0.2487468974236026
  0.2264603987535075  0.1128289969838603  0.7481013547938292
  0.2265677516441394  0.4465925136215329  0.2459306211616523
  0.2256732917620443  0.4485341635147882  0.7476186227708398
  0.2257198891725838  0.7799783706749638  0.2489582710533107
  0.2257524215291290  0.7811910654658762  0.7486932290333917
  0.5591607329354676  0.1135309575410917  0.2489077134995991
  0.5583436865027478  0.1137128439622520  0.7486729530726400
  0.5590361804860421  0.4475475021208913  0.2480441554226168
  0.5587289165240992  0.4469260629681469  0.7481359614313430
  0.5587449624230240  0.7805210894546587  0.2477143298776086
  0.5586011978832410  0.7808546573572922  0.7475210995514461
  0.8928215561399467  0.1128947181582974  0.2459044598269239
  0.8909672363118647  0.1136551789615581  0.7477082344933155
  0.8917954946793192  0.4474214662136380  0.2470656794580004
  0.8922598626750624  0.4472585939326677  0.7490827199523971
  0.8918501159668580  0.7803887632350803  0.2480355161698798
  0.8925691410721656  0.7808162982093756  0.7482131757617841
  0.1097486138656000  0.2294587947793324  0.5016885016379755
  0.1145304426278360  0.2250493662288083  0.1868851099262854
  0.1146695942565783  0.2247284043328062  0.6808474459107944
  0.1150825766461497  0.5578145441298752  0.1889864980386532
  0.1146846943383604  0.5591172254569514  0.6906261417562320
  0.1149970929954496  0.8925495395635348  0.1905774998331266
  0.1146116465555151  0.8920247676531222  0.6884961663071957
  0.4470780678055596  0.2246172425002457  0.1905335716036329
  0.4474358895025856  0.2248983455524082  0.6884856154297866
  0.4486766706770545  0.5586754616682813  0.1873616134712483
  0.4472359354360763  0.5579752666733517  0.6882103397525787
  0.4479599645949180  0.8915889254141307  0.1890638132359352
  0.4475903214070656  0.8919103456220454  0.6892617310751085
  0.7815770820301431  0.2243281568420211  0.1890336040018026
  0.7804661430698964  0.2248076719780370  0.6905956866597799
  0.7808857555845542  0.5587558195768544  0.1880548168972608
  0.7811727612781405  0.5583873523945162  0.6890398603530474
  0.7809892359131771  0.8910789308318596  0.1874880654562744
  0.7814480635335933  0.8921854979456439  0.6882200125460899
  0.2167880297176619  0.1224945255857190  0.4434234642386775
  0.2252247320734245  0.1135431127888880  0.9385392253190771
  0.2221324166725298  0.4365795988284930  0.4392072093183348
  0.2246491037414701  0.4459447975187509  0.9376251216310496
  0.2244526865111849  0.7788556728787499  0.4397916688891728
  0.2251385739525302  0.7807918472475793  0.9396710264645519
  0.5602988496332505  0.1147530981193479  0.4397916816861768
  0.5578990919125116  0.1135739570994455  0.9396148395364602
  0.5590613966511765  0.4473820385043502  0.4388503624132777
  0.5582541396876394  0.4463161329691470  0.9385513287244256
  0.5587979607825974  0.7804708813671816  0.4387285878407003
  0.5582297875967793  0.7804773849102273  0.9379546509190165
  0.9025333326231273  0.1169688774955116  0.4391930243077012
  0.8926051943532751  0.1140754787316438  0.9376666240668664
  0.8909668023086718  0.4480609306934992  0.4367175221827427
  0.8916584700585508  0.4468982880670898  0.9395970852802518
  0.8918319780240138  0.7801535284761794  0.4388581487376113
  0.8922759987928770  0.7804572807984979  0.9385934209346619
 
             NaN             NaN             NaN
             NaN             NaN             NaN
             NaN             NaN             NaN
             NaN             NaN             NaN
             NaN             NaN             NaN
             NaN             NaN             NaN
             NaN             NaN             NaN
             NaN             NaN             NaN
             NaN             NaN             NaN
             NaN             NaN             NaN
             NaN             NaN             NaN
             NaN             NaN             NaN
             NaN             NaN             NaN
             NaN             NaN             NaN
             NaN             NaN             NaN
             NaN             NaN             NaN
             NaN             NaN             NaN
             NaN             NaN             NaN
             NaN             NaN             NaN
             NaN             NaN             NaN
             NaN             NaN             NaN
             NaN             NaN             NaN
             NaN             NaN             NaN
             NaN             NaN             NaN
             NaN             NaN             NaN
             NaN             NaN             NaN
             NaN             NaN             NaN
             NaN             NaN             NaN
             NaN             NaN             NaN
             NaN             NaN             NaN
             NaN             NaN             NaN
             NaN             NaN             NaN
             NaN             NaN             NaN
             NaN             NaN             NaN
             NaN             NaN             NaN
             NaN             NaN             NaN
             NaN             NaN             NaN
             NaN             NaN             NaN
             NaN             NaN             NaN
             NaN             NaN             NaN
             NaN             NaN             NaN
             NaN             NaN             NaN
             NaN             NaN             NaN
             NaN             NaN             NaN
             NaN             NaN             NaN
             NaN             NaN             NaN
             NaN             NaN             NaN
             NaN             NaN             NaN
             NaN             NaN             NaN
             NaN             NaN             NaN
             NaN             NaN             NaN
             NaN             NaN             NaN
             NaN             NaN             NaN
             NaN             NaN             NaN
             NaN             NaN             NaN
             NaN             NaN             NaN
             NaN             NaN             NaN
             NaN             NaN             NaN
             NaN             NaN             NaN
             NaN             NaN             NaN
             NaN             NaN             NaN
             NaN             NaN             NaN
             NaN             NaN             NaN
             NaN             NaN             NaN
             NaN             NaN             NaN
             NaN             NaN             NaN
             NaN             NaN             NaN
             NaN             NaN             NaN
             NaN             NaN             NaN
             NaN             NaN             NaN
             NaN             NaN             NaN
             NaN             NaN             NaN
