Al   Si   N                             
    1.000000000000000     
     9.2872018813999997    0.0000000000000000    0.0000000000000000
    -4.6436029653999995    8.0429537929000006    0.0000000000000000
     0.0000000000000000    0.0000000000000000    9.9090690613000003
   Al   Si   N 
    35     1    36
Direct
  0.1148781538113900  0.2242593082401208  0.9964361260580719
  0.1009457791778545  0.5347712939481781  0.5029796796726788
  0.1143851308066817  0.5591315155103320  0.9969769025584786
  0.1158197594920252  0.8937856997432516  0.4965058877064100
  0.1146816203323325  0.8926113560118309  0.9988463532622274
  0.4454684789027132  0.2234135042045726  0.4965024395883680
  0.4465695248332997  0.2244704122911781  0.9988486552132034
  0.4505058162512867  0.5575512513821456  0.4965612783727530
  0.4482542398277673  0.5587560464810117  0.9963101816639519
  0.4472129685025302  0.8920728134603523  0.4973774577448837
  0.4471947442234487  0.8920094996005890  0.9992911464548538
  0.8045475880500237  0.2383471327435353  0.5029962608708998
  0.7800894321092430  0.2248021829811848  0.9969739147069722
  0.7801701300470636  0.5590670727450262  0.4967749765208249
  0.7802634151064584  0.5589127268826428  0.9966706221962532
  0.7816961015390339  0.8887379326357455  0.4965714993192108
  0.7804038143106794  0.8909028844712569  0.9963106349180157
  0.2240981855795284  0.1150372924199828  0.2543064597357290
  0.2268783548317878  0.1124217004374819  0.7444052492736117
  0.2272980114477306  0.4460047865722450  0.2432678837688606
  0.2241811151389241  0.4487600423962250  0.7482575204532731
  0.2243886026155752  0.7786523911976858  0.2513745869042165
  0.2259450182376535  0.7826959497782521  0.7482308319392634
  0.5605622201565545  0.1148072593991582  0.2513840250429576
  0.5566541130585985  0.1133718891834718  0.7482240382263897
  0.5588113588726179  0.4471321150854314  0.2480287481061562
  0.5581532158655312  0.4465391647758032  0.7468216371668696
  0.5587696050606668  0.7803880376467218  0.2477711927027748
  0.5581441386418556  0.7811539618748182  0.7465506082012137
  0.8931446759797026  0.1118442213558981  0.2432959620207448
  0.8905676804185261  0.1151110898575634  0.7482357712117682
  0.8909427974036960  0.4482608734159837  0.2450102301838312
  0.8920996923412771  0.4472318262057172  0.7488424583141282
  0.8920146059424746  0.7803410000414090  0.2480401091113794
  0.8927412679830273  0.7811277819292048  0.7468208335846611
  0.0811492197202744  0.2581305635989998  0.5133590075838634
  0.1147483302600955  0.2243812178800046  0.1851201464375387
  0.1158668284160144  0.2234826565622439  0.6875252945371605
  0.1148183247887023  0.5575446882396994  0.1873495878107055
  0.1154129755329652  0.5626037594737221  0.6951609815735382
  0.1144602977780621  0.8919272750702320  0.1897692727534082
  0.1137815188664373  0.8911498139498363  0.6887788547998728
  0.4472064612242029  0.2246647301700901  0.1897739075879642
  0.4481443620914450  0.2254907669037699  0.6887787286226564
  0.4494620124875954  0.5594050205448636  0.1858626856858569
  0.4465736183665530  0.5580866239804769  0.6881741147583588
  0.4475747427737716  0.8916029546146371  0.1901259952902827
  0.4473697393410919  0.8919364252623502  0.6893493759599163
  0.7816794261280471  0.2243831445652649  0.1873520993659491
  0.7767616434586523  0.2239255874898761  0.6951732600124404
  0.7798355021458950  0.5593457696000788  0.1857769777545093
  0.7806426267313640  0.5586646295440216  0.6888662667226843
  0.7797528681892938  0.8896795497485586  0.1858654391588655
  0.7812211590638417  0.8927146534248843  0.6881717384683940
  0.2228295898530659  0.1164176060503248  0.4424100541380941
  0.2254681011666226  0.1137106022476845  0.9367504268937016
  0.2358473418646519  0.4442713301416514  0.4309224631503548
  0.2253854348274845  0.4468362364694967  0.9382540614662106
  0.2227901377234738  0.7737297689674345  0.4416141946648811
  0.2258607970221614  0.7820204266760561  0.9399922081410820
  0.5655770915991515  0.1164924177446741  0.4416249806773481
  0.5572202120915862  0.1133459854439008  0.9399882361562821
  0.5598378981073336  0.4473651418305662  0.4386316807647848
  0.5580824718705224  0.4467265131334424  0.9376964355020732
  0.5593470035788258  0.7799243222636162  0.4388355495913700
  0.5582547159952979  0.7809357724331550  0.9375260621877546
  0.8949833878465008  0.1033885532340200  0.4309481278429190
  0.8923212318038707  0.1137548006600844  0.9382314125335409
  0.8859034741328995  0.4533470975785853  0.4308540167397898
  0.8915449494034630  0.4476404626815037  0.9397029613626904
  0.8918597959919634  0.7794024992363755  0.4386363815700723
  0.8924378650607731  0.7811003210166660  0.9376891009593092
 
             NaN             NaN             NaN
             NaN             NaN             NaN
             NaN             NaN             NaN
             NaN             NaN             NaN
             NaN             NaN             NaN
             NaN             NaN             NaN
             NaN             NaN             NaN
             NaN             NaN             NaN
             NaN             NaN             NaN
             NaN             NaN             NaN
             NaN             NaN             NaN
             NaN             NaN             NaN
             NaN             NaN             NaN
             NaN             NaN             NaN
             NaN             NaN             NaN
             NaN             NaN             NaN
             NaN             NaN             NaN
             NaN             NaN             NaN
             NaN             NaN             NaN
             NaN             NaN             NaN
             NaN             NaN             NaN
             NaN             NaN             NaN
             NaN             NaN             NaN
             NaN             NaN             NaN
             NaN             NaN             NaN
             NaN             NaN             NaN
             NaN             NaN             NaN
             NaN             NaN             NaN
             NaN             NaN             NaN
             NaN             NaN             NaN
             NaN             NaN             NaN
             NaN             NaN             NaN
             NaN             NaN             NaN
             NaN             NaN             NaN
             NaN             NaN             NaN
             NaN             NaN             NaN
             NaN             NaN             NaN
             NaN             NaN             NaN
             NaN             NaN             NaN
             NaN             NaN             NaN
             NaN             NaN             NaN
             NaN             NaN             NaN
             NaN             NaN             NaN
             NaN             NaN             NaN
             NaN             NaN             NaN
             NaN             NaN             NaN
             NaN             NaN             NaN
             NaN             NaN             NaN
             NaN             NaN             NaN
             NaN             NaN             NaN
             NaN             NaN             NaN
             NaN             NaN             NaN
             NaN             NaN             NaN
             NaN             NaN             NaN
             NaN             NaN             NaN
             NaN             NaN             NaN
             NaN             NaN             NaN
             NaN             NaN             NaN
             NaN             NaN             NaN
             NaN             NaN             NaN
             NaN             NaN             NaN
             NaN             NaN             NaN
             NaN             NaN             NaN
             NaN             NaN             NaN
             NaN             NaN             NaN
             NaN             NaN             NaN
             NaN             NaN             NaN
             NaN             NaN             NaN
             NaN             NaN             NaN
             NaN             NaN             NaN
             NaN             NaN             NaN
             NaN             NaN             NaN
