20.0% N(Distort)=2 ~[0.1,0.2,0.5]       
   1.0000000000000000     
     9.2872018813999997    0.0000000000000000    0.0000000000000000
    -4.6436029654000004    8.0429537929000006    0.0000000000000000
     0.0000000000000000    0.0000000000000000    9.9090690613000003
   Al   Si   N 
    35     1    36
Direct
  0.1136958828965291  0.2255182188708460  0.9971478392570319
  0.1116669700594102  0.5585309730118837  0.4981260571660542
  0.1135994966168923  0.5585712801784624  0.9975589877748661
  0.1116653454781371  0.8905445212295859  0.4981096847150894
  0.1137087303194804  0.8922533034866120  0.9974947819518647
  0.4486350991848553  0.2275701968182489  0.4981306887705372
  0.4468068921636927  0.2253164868116784  0.9974717356411418
  0.4486822590729034  0.5585047415734721  0.4981972716822796
  0.4468892826423314  0.5584775036345633  0.9974777494467375
  0.4470515617414321  0.8921765859586870  0.4983414782108682
  0.4470893316436673  0.8919830035397425  0.9974464959402738
  0.7807398225928281  0.2276093661158711  0.4980446470267097
  0.7805208776161834  0.2255429240000311  0.9975115302607236
  0.7802747459847694  0.5589071407639352  0.4976245414238250
  0.7803063114124527  0.5587753829134385  0.9974986420007426
  0.7808720939340716  0.8906625861148498  0.4981021114598434
  0.7806518732383978  0.8923395367875955  0.9974818383720958
  0.2240467060175888  0.1150177147417466  0.2457107699618106
  0.2256557249241595  0.1134249554411610  0.7466481353562884
  0.2242233937012088  0.4461239285430096  0.2458182407000393
  0.2258709333794258  0.4500897812866853  0.7466818777899533
  0.2253686827906805  0.7811211834477518  0.2467138312178534
  0.2250580962887767  0.7813058315935635  0.7480605843061099
  0.5579270831930643  0.1136307123647100  0.2467189576719662
  0.5581159828042175  0.1143961023110123  0.7479888997149402
  0.5584013486552308  0.4475326047092665  0.2469093789913970
  0.5584644663457823  0.4479361249272458  0.7482273147366456
  0.5580256266144019  0.7810377502757646  0.2467483793060978
  0.5582395994257965  0.7812444671370500  0.7479946283397894
  0.8931974199994386  0.1151399472311141  0.2457211877673871
  0.8892965973245808  0.1135705865813179  0.7465914861640712
  0.8913633559250584  0.4476966086194878  0.2470035200686240
  0.8913135017347571  0.4481374046901223  0.7481451136427140
  0.8913818194136809  0.7805755962608245  0.2468952070051671
  0.8914019982059500  0.7808490969315400  0.7481930817996840
  0.1137085013382446  0.2256052757555693  0.4984421793802838
  0.1138555856175927  0.2255022083842988  0.1873462302002764
  0.1136485938448644  0.2257171716884656  0.6772718030808704
  0.1143342156308194  0.5582216329875536  0.1895613922727790
  0.1136183826618051  0.5589034000812561  0.6879769848542665
  0.1143605373352798  0.8930524724277973  0.1894874169591390
  0.1136578964303467  0.8923609867603446  0.6879775563361221
  0.4460175092552774  0.2246463688108875  0.1894740501299950
  0.4468404444743896  0.2256415576041206  0.6880041547011260
  0.4461250358375253  0.5581725282169714  0.1894784504317357
  0.4469703017153321  0.5587960292342444  0.6880324349328575
  0.4471465518032645  0.8919025037175459  0.1883988796525102
  0.4471416323409017  0.8922974385217088  0.6888476895375817
  0.7808921681674548  0.2248241649312703  0.1895307412973466
  0.7805158063682285  0.2258539608957690  0.6879141551401560
  0.7803953191697559  0.5586495861407315  0.1884497862431971
  0.7803080551375814  0.5590175973873102  0.6884751726336447
  0.7810059699388248  0.8931445430798348  0.1894937595815591
  0.7806662585628885  0.8924618512599665  0.6879626587578542
  0.2181196421720699  0.1211307795766388  0.4416884103070871
  0.2241804224735588  0.1149138489020416  0.9368452280216459
  0.2181807763336181  0.4345013494643339  0.4417423783389651
  0.2242561402886523  0.4466425926091659  0.9368504445917907
  0.2250417476180928  0.7812181320162495  0.4383479424112693
  0.2246096837221856  0.7808821449022787  0.9388972843964467
  0.5580432048799580  0.1142329638520252  0.4383444858844783
  0.5582776962006264  0.1145387439056051  0.9388570184587124
  0.5581047672328125  0.4477331351371205  0.4380486091644542
  0.5578912947577948  0.4474420850882481  0.9389495633827849
  0.5581448843169454  0.7811654270738728  0.4383665104874623
  0.5583956244850938  0.7808094764128271  0.9388556490381248
  0.9048691600315379  0.1211979110971910  0.4416769598943802
  0.8925877273068608  0.1150105401855370  0.9368166244697562
  0.8914662764804788  0.4478448997155979  0.4380944364441675
  0.8915785519467363  0.4476322642593757  0.9389085887755186
  0.8915169878287941  0.7811077348609530  0.4380277941724628
  0.8916671988021818  0.7812692838919872  0.9389411208672840