Al2 N2                                  
   1.0000000000000000     
     9.2872018813999997    0.0000000000000000    0.0000000000000000
    -4.6436029654000004    8.0429537929000006    0.0000000000000000
     0.0000000000000000    0.0000000000000000    9.9090690613000003
   Si   Al   N 
     1    35    36
Direct
  0.4444443289999995  0.5555556420000016  0.5005975204378621
  0.1116120096205401  0.2207553991639276  0.5002803191372378
  0.1113437895475041  0.2223776525912127  0.9995289133851581
  0.1116120096205401  0.5575235874566179  0.5002803191372378
  0.1113437895475041  0.5556331139562900  0.9995289133851581
  0.1111109929999969  0.8888890149999966  0.4996788100586681
  0.1111109929999969  0.8888890149999966  0.9996050062304778
  0.4424763835433759  0.2207553991639276  0.5002803191372378
  0.4443668570437113  0.2223776525912127  0.9995289133851581
  0.4444443289999995  0.5555556420000016  0.9992036496338733
  0.4424763835433759  0.8883879983794535  0.5002803191372378
  0.4443668570437113  0.8886562184524894  0.9995289133851581
  0.7777776719999991  0.2222223280000009  0.5002885576703274
  0.7777776719999991  0.2222223280000009  0.9995100147972780
  0.7792446008360724  0.5575235874566179  0.5002803191372378
  0.7776223474087870  0.5556331139562900  0.9995289133851581
  0.7792446008360724  0.8883879983794535  0.5002803191372378
  0.7776223474087870  0.8886562184524894  0.9995289133851581
  0.2220804753263723  0.1108272876527469  0.2491100420562561
  0.2219967580056234  0.1106598530112420  0.7502596457105936
  0.2238245413357231  0.4452454356678607  0.2478702827720040
  0.2201442134682550  0.4434052717341302  0.7486896198347599
  0.2220804753263723  0.7779195246736278  0.2491100420562561
  0.2219967580056234  0.7780032419943768  0.7502596457105936
  0.5559829276546541  0.1113246358273268  0.2488617219524191
  0.5557592920933748  0.1112128180466871  0.7500781831953470
  0.5547545353321406  0.4452454356678607  0.2478702827720040
  0.5565946992658710  0.4434052717341302  0.7486896198347599
  0.5547545353321406  0.7761754586642767  0.2478702827720040
  0.5565946992658710  0.7798557865317449  0.7486896198347599
  0.8886753721726669  0.1113246358273268  0.2488617219524191
  0.8887871899533136  0.1112128180466871  0.7500781831953470
  0.8886753721726669  0.4440170433453470  0.2488617219524191
  0.8887871899533136  0.4442406789066262  0.7500781831953470
  0.8891727203472469  0.7779195246736278  0.2491100420562561
  0.8893401549887515  0.7780032419943768  0.7502596457105936
  0.1116365468148214  0.2233037348573530  0.1915979804895824
  0.1112855641061485  0.2223036967288531  0.6901283095027004
  0.1116365468148214  0.5549997889574741  0.1915979804895824
  0.1112855641061485  0.5556488443773011  0.6901283095027004
  0.1111109929999969  0.8888890149999966  0.1906380463900463
  0.1111109929999969  0.8888890149999966  0.6904831900184791
  0.4450001820425272  0.2233037348573530  0.1915979804895824
  0.4443511266227002  0.2223036967288531  0.6901283095027004
  0.4444443289999995  0.5555556420000016  0.1894057472659389
  0.4444443289999995  0.5555556420000016  0.6793646774888116
  0.4450001820425272  0.8883634611851722  0.1915979804895824
  0.4443511266227002  0.8887144438938451  0.6901283095027004
  0.7777776719999991  0.2222223280000009  0.1905038971080987
  0.7777776719999991  0.2222223280000009  0.6908678242997915
  0.7766962651426470  0.5549997889574741  0.1915979804895824
  0.7776963032711471  0.5556488443773011  0.6901283095027004
  0.7766962651426470  0.8883634611851722  0.1915979804895824
  0.7776963032711471  0.8887144438938451  0.6901283095027004
  0.2222332254925660  0.1111327879851201  0.4402424203421272
  0.2223145502135469  0.1112954374270820  0.9409476383348364
  0.2356462069088290  0.4511562684544136  0.4438391382868486
  0.2233756350492931  0.4450209825246492  0.9388901024965968
  0.2222332254925660  0.7777667745074341  0.4402424203421272
  0.2223145502135469  0.7776854497864532  0.9409476383348364
  0.5555739617666119  0.1111201528833022  0.4405186939407257
  0.5552563128494248  0.1109613284247121  0.9409056599149229
  0.5488437025455875  0.4511562684544136  0.4438391382868486
  0.5549789884753592  0.4450209825246492  0.9388901024965968
  0.5488437025455875  0.7643537930911710  0.4438391382868486
  0.5549789884753592  0.7766243649507069  0.9388901024965968
  0.8888798551166914  0.1111201528833022  0.4405186939407257
  0.8890386795752816  0.1109613284247121  0.9409056599149229
  0.8888798551166914  0.4444260092333819  0.4405186939407257
  0.8890386795752816  0.4447436581505763  0.9409056599149229
  0.8888672200148736  0.7777667745074341  0.4402424203421272
  0.8887045705729113  0.7776854497864532  0.9409476383348364