Al2 N2
1.0
        9.2872018814         0.0000000000         0.0000000000
       -4.6436029654         8.0429537929         0.0000000000
        0.0000000000         0.0000000000         9.9090690613
  Si   Al    N
   3   32   36
Direct
     0.111110993         0.222222328         0.499506146
     0.111110993         0.555555642         0.499506146
     0.444444329         0.222222328         0.499506146
     0.111110993         0.222222328         0.999506116
     0.111110993         0.555555642         0.999506116
     0.111110993         0.888889015         0.499506146
     0.111110993         0.888889015         0.999506116
     0.444444329         0.222222328         0.999506116
     0.444444329         0.555555642         0.999506116
     0.444444329         0.888889015         0.499506146
     0.444444329         0.888889015         0.999506116
     0.777777672         0.222222328         0.499506146
     0.777777672         0.222222328         0.999506116
     0.777777672         0.555555642         0.499506146
     0.777777672         0.555555642         0.999506116
     0.777777672         0.888889015         0.499506146
     0.777777672         0.888889015         0.999506116
     0.222222328         0.111110993         0.249506146
     0.222222328         0.111110993         0.749506116
     0.222222328         0.444444329         0.249506146
     0.222222328         0.444444329         0.749506116
     0.222222328         0.777777672         0.249506146
     0.222222328         0.777777672         0.749506116
     0.555555642         0.111110993         0.249506146
     0.555555642         0.111110993         0.749506116
     0.555555642         0.444444329         0.249506146
     0.555555642         0.444444329         0.749506116
     0.555555642         0.777777672         0.249506146
     0.555555642         0.777777672         0.749506116
     0.888889015         0.111110993         0.249506146
     0.888889015         0.111110993         0.749506116
     0.888889015         0.444444329         0.249506146
     0.888889015         0.444444329         0.749506116
     0.888889015         0.777777672         0.249506146
     0.888889015         0.777777672         0.749506116
     0.111110993         0.222222328         0.190493867
     0.111110993         0.222222328         0.690493882
     0.111110993         0.555555642         0.190493867
     0.111110993         0.555555642         0.690493882
     0.111110993         0.888889015         0.190493867
     0.111110993         0.888889015         0.690493882
     0.444444329         0.222222328         0.190493867
     0.444444329         0.222222328         0.690493882
     0.444444329         0.555555642         0.190493867
     0.444444329         0.555555642         0.690493882
     0.444444329         0.888889015         0.190493867
     0.444444329         0.888889015         0.690493882
     0.777777672         0.222222328         0.190493867
     0.777777672         0.222222328         0.690493882
     0.777777672         0.555555642         0.190493867
     0.777777672         0.555555642         0.690493882
     0.777777672         0.888889015         0.190493867
     0.777777672         0.888889015         0.690493882
     0.222222328         0.111110993         0.440493852
     0.222222328         0.111110993         0.940493822
     0.222222328         0.444444329         0.440493852
     0.222222328         0.444444329         0.940493822
     0.222222328         0.777777672         0.440493852
     0.222222328         0.777777672         0.940493822
     0.555555642         0.111110993         0.440493852
     0.555555642         0.111110993         0.940493822
     0.555555642         0.444444329         0.440493852
     0.555555642         0.444444329         0.940493822
     0.555555642         0.777777672         0.440493852
     0.555555642         0.777777672         0.940493822
     0.888889015         0.111110993         0.440493852
     0.888889015         0.111110993         0.940493822
     0.888889015         0.444444329         0.440493852
     0.888889015         0.444444329         0.940493822
     0.888889015         0.777777672         0.440493852
     0.888889015         0.777777672         0.940493822