Al2 N2                                  
   1.0000000000000000     
     9.2872018813999997    0.0000000000000000    0.0000000000000000
    -4.6436029654000004    8.0429537929000006    0.0000000000000000
     0.0000000000000000    0.0000000000000000    9.9090690613000003
   Si   Al   N 
     2    35    36
Direct
  0.5685904380038921  0.4314095329961091  0.7041834503514262
  0.6464646883369789  0.3535386446630233  0.8894799817509552
  0.1093491969201487  0.2214360726821184  0.5016558998525790
  0.1090191225714433  0.2226999594123612  0.0003946869279914
  0.1169232935438587  0.5568931516153434  0.4989529638198955
  0.1151390411666314  0.5584162389710943  0.9983975490728810
  0.1118500221391554  0.8881499858608379  0.5022376701293917
  0.1096141299143854  0.8903858780856083  0.9977910712205910
  0.4380160196702078  0.2150948005474343  0.4795332588276769
  0.4143927436192897  0.2053799476435260  0.0322255148099888
  0.4463735481045059  0.5536264228954952  0.4942838073256606
  0.4433681628413016  0.5566318081586925  0.0068742866439113
  0.4431068193846580  0.8830767144561350  0.4989529638198955
  0.4415837320289072  0.8848609668333619  0.9983975490728810
  0.7790693217295741  0.2209306782704260  0.4976621135938741
  0.7832586344074014  0.2167413655925985  0.0101301088913717
  0.7849051994525656  0.5619839513297935  0.4795332588276769
  0.7946200523564739  0.5856072273807117  0.0322255148099888
  0.7785639273178817  0.8906508110798450  0.5016558998525790
  0.7773000405876386  0.8909808854285503  0.0003946869279914
  0.2103750546326675  0.1051797355382110  0.2569945635906924
  0.2211492718145688  0.1108820064097302  0.7463111933108065
  0.2212814784598508  0.4439675289053766  0.2513664879921149
  0.2273226648898318  0.4400555612367005  0.7500011123191643
  0.2214936709737429  0.7785063290262572  0.2479041025756273
  0.2231121554070677  0.7768878445929321  0.7493715842815032
  0.5558215713635967  0.1059512046915728  0.2561484405565233
  0.5509539783229355  0.1049452586134783  0.7279954384054902
  0.5548205585655537  0.4451794124344474  0.2474494421129613
  0.5560324420946245  0.7787185215401492  0.2513664879921149
  0.5599444097633008  0.7726773351101683  0.7500011123191643
  0.8892438930493073  0.1107561149506862  0.2528394622469821
  0.8885183998646493  0.1114816081353442  0.7491289843736550
  0.8940488033084207  0.4441783996364045  0.2561484405565233
  0.8950547493865154  0.4490459926770655  0.7279954384054902
  0.8948202724617826  0.7896249453673324  0.2569945635906924
  0.8891180015902636  0.7788507281854311  0.7463111933108065
  0.1099333517140106  0.2225013042583749  0.1902585816461796
  0.1100480888250566  0.2211485612121640  0.6922932153693521
  0.1094179274823639  0.5545011180259437  0.1867766120098070
  0.1189351692470412  0.5556489079529106  0.6916844185751745
  0.1105902157532273  0.8894097922467662  0.1875195180578677
  0.1125753213223689  0.8874246866776244  0.6930785706631101
  0.4366803500089574  0.2128279523738900  0.2128750641085284
  0.4380844458250374  0.2180516584622520  0.6692796606835285
  0.4425302115212539  0.5574697594787472  0.1955484954694186
  0.4586003018869432  0.5413996691130580  0.6938448504857276
  0.4454988529740573  0.8905820805176299  0.1867766120098070
  0.4443510630470908  0.8810648387529522  0.6916844185751745
  0.7769941666086262  0.2230058333913737  0.1942968032376780
  0.7770459567184255  0.2229540432815746  0.6894883760368152
  0.7871720476261100  0.5633196209910438  0.2128750641085284
  0.7819483415377479  0.5619155251749639  0.6692796606835285
  0.7774986957416252  0.8900666562859829  0.1902585816461796
  0.7788514387878360  0.8899519191749369  0.6922932153693521
  0.2135078635241209  0.1064732461499638  0.4421012329115738
  0.2202500416407682  0.1123419050375734  0.9395794135503990
  0.2239576604133252  0.4434920772625163  0.4423904052365563
  0.2231242909575686  0.4449866790285011  0.9404522488181586
  0.2225576040314361  0.7774423959685640  0.4390755203611304
  0.2211041957934133  0.7788958042065870  0.9399132164241358
  0.5565359924924929  0.1056150617133238  0.4440596232419364
  0.5590669156208128  0.1380458800087719  0.9361656618296420
  0.5571132735265163  0.4428866974734848  0.4404160935271537
  0.5626890509616789  0.4373109200383224  0.9976485114902318
  0.5565078937374777  0.7760423395866749  0.4423904052365563
  0.5550132919715001  0.7768757090424313  0.9404522488181586
  0.8888299724553402  0.1111700355446533  0.4417676257424373
  0.8875123051097897  0.1124877028902038  0.9403993810731976
  0.8943849462866695  0.4434639785075084  0.4440596232419364
  0.8619541279912216  0.4409330553791885  0.9361656618296420
  0.8935267618500298  0.7864921364758790  0.4421012329115738
  0.8876581029624203  0.7797499583592320  0.9395794135503990

  0.00000000E+00  0.00000000E+00  0.00000000E+00
  0.00000000E+00  0.00000000E+00  0.00000000E+00
  0.00000000E+00  0.00000000E+00  0.00000000E+00
  0.00000000E+00  0.00000000E+00  0.00000000E+00
  0.00000000E+00  0.00000000E+00  0.00000000E+00
  0.00000000E+00  0.00000000E+00  0.00000000E+00
  0.00000000E+00  0.00000000E+00  0.00000000E+00
  0.00000000E+00  0.00000000E+00  0.00000000E+00
  0.00000000E+00  0.00000000E+00  0.00000000E+00
  0.00000000E+00  0.00000000E+00  0.00000000E+00
  0.00000000E+00  0.00000000E+00  0.00000000E+00
  0.00000000E+00  0.00000000E+00  0.00000000E+00
  0.00000000E+00  0.00000000E+00  0.00000000E+00
  0.00000000E+00  0.00000000E+00  0.00000000E+00
  0.00000000E+00  0.00000000E+00  0.00000000E+00
  0.00000000E+00  0.00000000E+00  0.00000000E+00
  0.00000000E+00  0.00000000E+00  0.00000000E+00
  0.00000000E+00  0.00000000E+00  0.00000000E+00
  0.00000000E+00  0.00000000E+00  0.00000000E+00
  0.00000000E+00  0.00000000E+00  0.00000000E+00
  0.00000000E+00  0.00000000E+00  0.00000000E+00
  0.00000000E+00  0.00000000E+00  0.00000000E+00
  0.00000000E+00  0.00000000E+00  0.00000000E+00
  0.00000000E+00  0.00000000E+00  0.00000000E+00
  0.00000000E+00  0.00000000E+00  0.00000000E+00
  0.00000000E+00  0.00000000E+00  0.00000000E+00
  0.00000000E+00  0.00000000E+00  0.00000000E+00
  0.00000000E+00  0.00000000E+00  0.00000000E+00
  0.00000000E+00  0.00000000E+00  0.00000000E+00
  0.00000000E+00  0.00000000E+00  0.00000000E+00
  0.00000000E+00  0.00000000E+00  0.00000000E+00
  0.00000000E+00  0.00000000E+00  0.00000000E+00
  0.00000000E+00  0.00000000E+00  0.00000000E+00
  0.00000000E+00  0.00000000E+00  0.00000000E+00
  0.00000000E+00  0.00000000E+00  0.00000000E+00
  0.00000000E+00  0.00000000E+00  0.00000000E+00
  0.00000000E+00  0.00000000E+00  0.00000000E+00
  0.00000000E+00  0.00000000E+00  0.00000000E+00
  0.00000000E+00  0.00000000E+00  0.00000000E+00
  0.00000000E+00  0.00000000E+00  0.00000000E+00
  0.00000000E+00  0.00000000E+00  0.00000000E+00
  0.00000000E+00  0.00000000E+00  0.00000000E+00
  0.00000000E+00  0.00000000E+00  0.00000000E+00
  0.00000000E+00  0.00000000E+00  0.00000000E+00
  0.00000000E+00  0.00000000E+00  0.00000000E+00
  0.00000000E+00  0.00000000E+00  0.00000000E+00
  0.00000000E+00  0.00000000E+00  0.00000000E+00
  0.00000000E+00  0.00000000E+00  0.00000000E+00
  0.00000000E+00  0.00000000E+00  0.00000000E+00
  0.00000000E+00  0.00000000E+00  0.00000000E+00
  0.00000000E+00  0.00000000E+00  0.00000000E+00
  0.00000000E+00  0.00000000E+00  0.00000000E+00
  0.00000000E+00  0.00000000E+00  0.00000000E+00
  0.00000000E+00  0.00000000E+00  0.00000000E+00
  0.00000000E+00  0.00000000E+00  0.00000000E+00
  0.00000000E+00  0.00000000E+00  0.00000000E+00
  0.00000000E+00  0.00000000E+00  0.00000000E+00
  0.00000000E+00  0.00000000E+00  0.00000000E+00
  0.00000000E+00  0.00000000E+00  0.00000000E+00
  0.00000000E+00  0.00000000E+00  0.00000000E+00
  0.00000000E+00  0.00000000E+00  0.00000000E+00
  0.00000000E+00  0.00000000E+00  0.00000000E+00
  0.00000000E+00  0.00000000E+00  0.00000000E+00
  0.00000000E+00  0.00000000E+00  0.00000000E+00
  0.00000000E+00  0.00000000E+00  0.00000000E+00
  0.00000000E+00  0.00000000E+00  0.00000000E+00
  0.00000000E+00  0.00000000E+00  0.00000000E+00
  0.00000000E+00  0.00000000E+00  0.00000000E+00
  0.00000000E+00  0.00000000E+00  0.00000000E+00
  0.00000000E+00  0.00000000E+00  0.00000000E+00
  0.00000000E+00  0.00000000E+00  0.00000000E+00
  0.00000000E+00  0.00000000E+00  0.00000000E+00
  0.00000000E+00  0.00000000E+00  0.00000000E+00