30.0% N(Distort)=2 ~[0.3,0.3,0.2]       
    1.000000000000000     
     9.2872018813999997    0.0000000000000000    0.0000000000000000
    -4.6436018943999997    8.0429544112000002    0.0000000000000000
     0.0000000000000000    0.0000000000000000   14.8636035919000005
  Al             N          
              55              54
Direct
  0.3149002065112923  0.3500129032068818  0.2558474940160080
  0.0841098430047111  0.2089389362662217  0.3520334726886707
  0.1011307201614279  0.2120665592232911  0.9869043836698634
  0.1092312483017966  0.2236964695211304  0.6666185908508351
  0.1087181201609182  0.5563185798461574  0.3371141725364595
  0.1089285997579674  0.5572198379346115  0.9967559733617246
  0.1091719854715413  0.5562590716103694  0.6662200762811330
  0.1088508147108565  0.8897868296947882  0.3319112825436837
  0.1097004727878887  0.8875637740390978  0.9981293655187125
  0.1080061578597087  0.8878588421547696  0.6676133354284065
  0.4485261355173457  0.2165353402185300  0.3407285990635443
  0.4441953921514920  0.2222008903544873  0.9943368480081257
  0.4431541914064205  0.2224123526754000  0.6679394826471257
  0.4559018485185194  0.5807614552340455  0.3519574654477524
  0.4542439957742045  0.5652125132570683  0.9868520041297381
  0.4415845390155684  0.5561869579186640  0.6666205185232089
  0.4418178135082752  0.8901759210133292  0.3331908737407756
  0.4442269983937369  0.8902513317901422  0.9979823171250881
  0.4412754209399533  0.8909103394983123  0.6676013774532440
  0.7749222369358639  0.2232426762752238  0.3332168095821563
  0.7759825552440422  0.2220639068478176  0.9979884429755208
  0.7745700396581260  0.2241522715038483  0.6676075706258658
  0.7754102593141849  0.5563282017405802  0.3319545960109359
  0.7785963448316388  0.5564780558550489  0.9982504936628424
  0.7775221189767128  0.5574656515050034  0.6675386262611775
  0.7747278919398318  0.8901274073871039  0.3329317031869474
  0.7756306295454229  0.8905243103516883  0.9981213734663582
  0.7766906428897399  0.8886530224374104  0.6678040758219825
  0.2175131651718373  0.1119281514140711  0.1531076360552582
  0.2210011970121563  0.1097278562663224  0.8303624893616848
  0.2191510362969663  0.1082973204502718  0.5050074621878901
  0.2318016434139980  0.4345195505405189  0.1273091320192396
  0.2206503632529818  0.4452866158851255  0.8319378824862207
  0.2188305290109043  0.4459272437831484  0.4989554281701533
  0.2223084154335372  0.7743918315828379  0.1650230586696433
  0.2208161835553306  0.7783537116575332  0.8324432254953618
  0.2193134166048531  0.7794816195020005  0.5011414114891815
  0.5539414173590768  0.1119508955887842  0.1637276400904567
  0.5543879562489037  0.1116638345683583  0.8326638819668853
  0.5540490542550291  0.1110854946132176  0.5019937546902903
  0.5534670119179508  0.4482258729676279  0.1534625196348742
  0.5561665808531921  0.4449127699698703  0.8303752266140590
  0.5565959661007749  0.4458528729423856  0.5049554549381882
  0.5552950787212898  0.7799457425162312  0.1633338576290771
  0.5555041054993004  0.7819645627661209  0.8291932912903870
  0.5566574744126872  0.7849567259728520  0.5063458656628396
  0.8860080560722974  0.1105335522850734  0.1633147862199683
  0.8840183802636257  0.1104980759996839  0.8292244642452588
  0.8799308292961878  0.1081972417353449  0.5064090800861681
  0.8913865601099132  0.4434321278463025  0.1651739686095834
  0.8876083698204091  0.4452825018898087  0.8324177079287574
  0.8855757826037993  0.4456580105567482  0.5011849341399849
  0.8871461850791986  0.7784451038974931  0.1644769728277754
  0.8874055147062111  0.7784732620076910  0.8335196607642994
  0.8866410196194593  0.7784454994835309  0.4992640730074057
  0.0908396595948607  0.2027527613466370  0.1098066843846124
  0.1094877046430400  0.2228026522176483  0.7944734945723647
  0.1016910643325377  0.2142242911105542  0.4730549640414172
  0.1140679017580069  0.5517628236023036  0.1250585519283715
  0.1098274798057954  0.5560905379604061  0.7937516288988403
  0.1058860806953638  0.5590586975634344  0.4639474330984088
  0.1104067860928863  0.8859326878735028  0.1265933803472093
  0.1082353181146025  0.8874434071419200  0.7936534758661663
  0.1095556168654503  0.8911617201304868  0.4590748932409184
  0.4449028432342776  0.2209015673922503  0.1215511331074213
  0.4434578250253325  0.2224813245041448  0.7936762805152682
  0.4420573663736858  0.2228723681289303  0.4642660858468976
  0.4634202079894925  0.5753175933585796  0.1096776632152926
  0.4430515597049683  0.5564186303355477  0.7944566028297884
  0.4505389899117543  0.5632430188712053  0.4730047110899955
  0.4436704404729749  0.8901631450449287  0.1261693891134200
  0.4416944023264077  0.8908799640511006  0.7930256935315450
  0.4423779996233901  0.8897127462865783  0.4607548860239820
  0.7757380667771061  0.2221390819601752  0.1261765868123738
  0.7751450150048962  0.2243185834596998  0.7930383656628847
  0.7753370919095006  0.2225880641800816  0.4607697301007236
  0.7796985051310767  0.5552341394366163  0.1267662547111815
  0.7783602983567313  0.5577092750537425  0.7935647713883967
  0.7738622666430526  0.5554309064703514  0.4591161786361064
  0.7762735000422701  0.8895473136150467  0.1265190843802244
  0.7775342841058384  0.8883825813524798  0.7926511206929686
  0.7746231051083136  0.8902199398433462  0.4606918804372361
  0.2215387087311241  0.1240660729962434  0.2955633068346508
  0.2216764527844808  0.1081185039362886  0.9568162506013299
  0.2206065210881197  0.1105225054299824  0.6303803392226226
  0.2247283972015010  0.4399343317342292  0.3307429763499068
  0.2221516229703207  0.4440381835794937  0.9615112459584255
  0.2198670703853684  0.4453807421720006  0.6275881956021067
  0.2200517608318018  0.7776999920888230  0.2934336040925985
  0.2214960326194692  0.7779884180291236  0.9595385548572027
  0.2202177138786196  0.7793022173418834  0.6275050091706600
  0.5534234527385432  0.1117608352186369  0.2930157634494731
  0.5547933076020795  0.1114327379386369  0.9589033730561602
  0.5535430297381595  0.1119237899752903  0.6274495300519086
  0.5411206405791933  0.4436383698837892  0.2956665716871945
  0.5581533535669725  0.4445561684600783  0.9568001980892350
  0.5547986633432372  0.4448604388937636  0.6303232274471817
  0.5534839173692711  0.7804002391231607  0.2932716222969269
  0.5575460060062674  0.7859018970996559  0.9541956438211283
  0.5543479538190252  0.7812911552475557  0.6311171387114334
  0.8846584765101430  0.1114985985195694  0.2933008438575463
  0.8803662063969786  0.1086845309645399  0.9542635106055944
  0.8840672492754997  0.1109889420419074  0.6311022216420297
  0.8874318504046639  0.4450646587761024  0.2935114466866623
  0.8881929147096957  0.4447923604206035  0.9594925322559669
  0.8860876623444066  0.4451955063563283  0.6275112719254992
  0.8860078300502899  0.7792165721969498  0.2931062509760594
  0.8874230208001398  0.7786676680349687  0.9606283636637524
  0.8870541023741787  0.7784176773973547  0.6259237406988299
 
  0.00000000E+00  0.00000000E+00  0.00000000E+00
  0.00000000E+00  0.00000000E+00  0.00000000E+00
  0.00000000E+00  0.00000000E+00  0.00000000E+00
  0.00000000E+00  0.00000000E+00  0.00000000E+00
  0.00000000E+00  0.00000000E+00  0.00000000E+00
  0.00000000E+00  0.00000000E+00  0.00000000E+00
  0.00000000E+00  0.00000000E+00  0.00000000E+00
  0.00000000E+00  0.00000000E+00  0.00000000E+00
  0.00000000E+00  0.00000000E+00  0.00000000E+00
  0.00000000E+00  0.00000000E+00  0.00000000E+00
  0.00000000E+00  0.00000000E+00  0.00000000E+00
  0.00000000E+00  0.00000000E+00  0.00000000E+00
  0.00000000E+00  0.00000000E+00  0.00000000E+00
  0.00000000E+00  0.00000000E+00  0.00000000E+00
  0.00000000E+00  0.00000000E+00  0.00000000E+00
  0.00000000E+00  0.00000000E+00  0.00000000E+00
  0.00000000E+00  0.00000000E+00  0.00000000E+00
  0.00000000E+00  0.00000000E+00  0.00000000E+00
  0.00000000E+00  0.00000000E+00  0.00000000E+00
  0.00000000E+00  0.00000000E+00  0.00000000E+00
  0.00000000E+00  0.00000000E+00  0.00000000E+00
  0.00000000E+00  0.00000000E+00  0.00000000E+00
  0.00000000E+00  0.00000000E+00  0.00000000E+00
  0.00000000E+00  0.00000000E+00  0.00000000E+00
  0.00000000E+00  0.00000000E+00  0.00000000E+00
  0.00000000E+00  0.00000000E+00  0.00000000E+00
  0.00000000E+00  0.00000000E+00  0.00000000E+00
  0.00000000E+00  0.00000000E+00  0.00000000E+00
  0.00000000E+00  0.00000000E+00  0.00000000E+00
  0.00000000E+00  0.00000000E+00  0.00000000E+00
  0.00000000E+00  0.00000000E+00  0.00000000E+00
  0.00000000E+00  0.00000000E+00  0.00000000E+00
  0.00000000E+00  0.00000000E+00  0.00000000E+00
  0.00000000E+00  0.00000000E+00  0.00000000E+00
  0.00000000E+00  0.00000000E+00  0.00000000E+00
  0.00000000E+00  0.00000000E+00  0.00000000E+00
  0.00000000E+00  0.00000000E+00  0.00000000E+00
  0.00000000E+00  0.00000000E+00  0.00000000E+00
  0.00000000E+00  0.00000000E+00  0.00000000E+00
  0.00000000E+00  0.00000000E+00  0.00000000E+00
  0.00000000E+00  0.00000000E+00  0.00000000E+00
  0.00000000E+00  0.00000000E+00  0.00000000E+00
  0.00000000E+00  0.00000000E+00  0.00000000E+00
  0.00000000E+00  0.00000000E+00  0.00000000E+00
  0.00000000E+00  0.00000000E+00  0.00000000E+00
  0.00000000E+00  0.00000000E+00  0.00000000E+00
  0.00000000E+00  0.00000000E+00  0.00000000E+00
  0.00000000E+00  0.00000000E+00  0.00000000E+00
  0.00000000E+00  0.00000000E+00  0.00000000E+00
  0.00000000E+00  0.00000000E+00  0.00000000E+00
  0.00000000E+00  0.00000000E+00  0.00000000E+00
  0.00000000E+00  0.00000000E+00  0.00000000E+00
  0.00000000E+00  0.00000000E+00  0.00000000E+00
  0.00000000E+00  0.00000000E+00  0.00000000E+00
  0.00000000E+00  0.00000000E+00  0.00000000E+00
  0.00000000E+00  0.00000000E+00  0.00000000E+00
  0.00000000E+00  0.00000000E+00  0.00000000E+00
  0.00000000E+00  0.00000000E+00  0.00000000E+00
  0.00000000E+00  0.00000000E+00  0.00000000E+00
  0.00000000E+00  0.00000000E+00  0.00000000E+00
  0.00000000E+00  0.00000000E+00  0.00000000E+00
  0.00000000E+00  0.00000000E+00  0.00000000E+00
  0.00000000E+00  0.00000000E+00  0.00000000E+00
  0.00000000E+00  0.00000000E+00  0.00000000E+00
  0.00000000E+00  0.00000000E+00  0.00000000E+00
  0.00000000E+00  0.00000000E+00  0.00000000E+00
  0.00000000E+00  0.00000000E+00  0.00000000E+00
  0.00000000E+00  0.00000000E+00  0.00000000E+00
  0.00000000E+00  0.00000000E+00  0.00000000E+00
  0.00000000E+00  0.00000000E+00  0.00000000E+00
  0.00000000E+00  0.00000000E+00  0.00000000E+00
  0.00000000E+00  0.00000000E+00  0.00000000E+00
  0.00000000E+00  0.00000000E+00  0.00000000E+00
  0.00000000E+00  0.00000000E+00  0.00000000E+00
  0.00000000E+00  0.00000000E+00  0.00000000E+00
  0.00000000E+00  0.00000000E+00  0.00000000E+00
  0.00000000E+00  0.00000000E+00  0.00000000E+00
  0.00000000E+00  0.00000000E+00  0.00000000E+00
  0.00000000E+00  0.00000000E+00  0.00000000E+00
  0.00000000E+00  0.00000000E+00  0.00000000E+00
  0.00000000E+00  0.00000000E+00  0.00000000E+00
  0.00000000E+00  0.00000000E+00  0.00000000E+00
  0.00000000E+00  0.00000000E+00  0.00000000E+00
  0.00000000E+00  0.00000000E+00  0.00000000E+00
  0.00000000E+00  0.00000000E+00  0.00000000E+00
  0.00000000E+00  0.00000000E+00  0.00000000E+00
  0.00000000E+00  0.00000000E+00  0.00000000E+00
  0.00000000E+00  0.00000000E+00  0.00000000E+00
  0.00000000E+00  0.00000000E+00  0.00000000E+00
  0.00000000E+00  0.00000000E+00  0.00000000E+00
  0.00000000E+00  0.00000000E+00  0.00000000E+00
  0.00000000E+00  0.00000000E+00  0.00000000E+00
  0.00000000E+00  0.00000000E+00  0.00000000E+00
  0.00000000E+00  0.00000000E+00  0.00000000E+00
  0.00000000E+00  0.00000000E+00  0.00000000E+00
  0.00000000E+00  0.00000000E+00  0.00000000E+00
  0.00000000E+00  0.00000000E+00  0.00000000E+00
  0.00000000E+00  0.00000000E+00  0.00000000E+00
  0.00000000E+00  0.00000000E+00  0.00000000E+00
  0.00000000E+00  0.00000000E+00  0.00000000E+00
  0.00000000E+00  0.00000000E+00  0.00000000E+00
  0.00000000E+00  0.00000000E+00  0.00000000E+00
  0.00000000E+00  0.00000000E+00  0.00000000E+00
  0.00000000E+00  0.00000000E+00  0.00000000E+00
  0.00000000E+00  0.00000000E+00  0.00000000E+00
  0.00000000E+00  0.00000000E+00  0.00000000E+00
  0.00000000E+00  0.00000000E+00  0.00000000E+00
  0.00000000E+00  0.00000000E+00  0.00000000E+00
  0.00000000E+00  0.00000000E+00  0.00000000E+00
