Al/             N/                      
1.0
        9.2872018814         0.0000000000         0.0000000000
       -4.6436018944         8.0429544112         0.0000000000
        0.0000000000         0.0000000000        14.8636035919
   Al    N
   55   54
Direct
     0.248978913         0.392497569         0.231848568
     0.099609546         0.192481324         0.354784310
     0.108933106         0.222228408         0.994826376
     0.114385709         0.226025701         0.663125932
     0.120607756         0.550469220         0.330776930
     0.096716948         0.575199306         0.980645716
     0.115007602         0.556510806         0.664252281
     0.114339203         0.883387744         0.334211528
     0.113734141         0.898876071         0.001120718
     0.111988552         0.889757633         0.666358948
     0.448486477         0.222772092         0.335157543
     0.447200239         0.228075638         0.997824430
     0.448503673         0.223542646         0.666252136
     0.464173108         0.555662215         0.344498575
     0.459740102         0.570693910         0.985002995
     0.444616884         0.556227922         0.663214564
     0.446891785         0.886449456         0.332010716
     0.446275175         0.895459116         0.997020900
     0.447519839         0.892786443         0.664493918
     0.783048630         0.224175289         0.332462132
     0.778681576         0.227789596         0.997744501
     0.778387606         0.223663598         0.666108787
     0.791506410         0.556785345         0.335429102
     0.772601247         0.558690012         0.002404259
     0.781613529         0.559544861         0.664475441
     0.778422534         0.886179745         0.332228363
     0.778951645         0.895573795         0.999496281
     0.780707061         0.890120685         0.667326689
     0.232981116         0.129604891         0.168331176
     0.224418178         0.115886241         0.830283403
     0.227054104         0.105142102         0.505489171
     0.222212985         0.491614252         0.105420940
     0.222616956         0.449806005         0.831545889
     0.225437567         0.441701740         0.487853914
     0.221050367         0.784793258         0.164321840
     0.226803035         0.788496494         0.827424884
     0.224892646         0.776425242         0.500526845
     0.558821380         0.115592822         0.164745390
     0.557550192         0.115171932         0.832302690
     0.559141994         0.111620769         0.498516053
     0.529501975         0.441511303         0.172399804
     0.558334410         0.447692007         0.828328907
     0.563988984         0.444583207         0.502004147
     0.554262459         0.779128671         0.163749501
     0.559485555         0.786276996         0.827540040
     0.560649872         0.780640960         0.502525210
     0.894249737         0.119790941         0.165533960
     0.890170276         0.115219049         0.830379367
     0.883863568         0.105924085         0.505323768
     0.888474703         0.452825397         0.163669124
     0.884357631         0.446748257         0.827609897
     0.895206809         0.446042299         0.501068175
     0.888477206         0.781266391         0.166055068
     0.890537441         0.781412661         0.833821535
     0.892934322         0.779093921         0.499534041
     0.110450447         0.229937688         0.119414039
     0.113737099         0.228869051         0.792741895
     0.103977680         0.203314170         0.477204621
     0.089672916         0.585666001         0.102692291
     0.111909211         0.561001599         0.793914139
     0.112323970         0.559660196         0.462700516
     0.114222169         0.903631210         0.128518671
     0.110417724         0.893596649         0.791974485
     0.115030058         0.887205720         0.461968362
     0.450151891         0.223410264         0.123089246
     0.446937233         0.225004688         0.792122185
     0.446715295         0.221492574         0.463072568
     0.459415019         0.577948272         0.105477899
     0.444703519         0.559842825         0.792985916
     0.460839212         0.562064409         0.470051020
     0.444697827         0.892784655         0.124809742
     0.447650313         0.895778716         0.789865971
     0.447936356         0.888642371         0.460395396
     0.781653225         0.228718817         0.125428990
     0.777870953         0.224765778         0.791685522
     0.782090604         0.223015711         0.460696757
     0.766068637         0.556848645         0.129409522
     0.779813230         0.562560022         0.790200710
     0.785944939         0.557099819         0.463389039
     0.779952645         0.897393346         0.127296790
     0.782103717         0.892977893         0.792700112
     0.779738843         0.888879359         0.460285395
     0.221812308         0.105376467         0.299789190
     0.224854097         0.118750677         0.956784785
     0.226616859         0.111389391         0.630967557
     0.225184813         0.423913687         0.349736720
     0.219802707         0.456754714         0.963555574
     0.224614874         0.446469367         0.624086559
     0.225352615         0.775177419         0.292454451
     0.228137150         0.796237051         0.952224493
     0.224962264         0.780192256         0.627997994
     0.559258699         0.110001437         0.293482184
     0.557667434         0.116426662         0.958192229
     0.558679640         0.113328397         0.625242352
     0.573832810         0.445406079         0.303427339
     0.557049334         0.447190881         0.953361750
     0.559204519         0.445230156         0.628935814
     0.556027770         0.771665275         0.293283403
     0.561842859         0.792566836         0.952281415
     0.559304178         0.781664610         0.629063904
     0.894548297         0.110943303         0.295108825
     0.889079571         0.116495900         0.956856012
     0.887549341         0.111162677         0.630687654
     0.898619115         0.445376962         0.291935176
     0.876653254         0.445445001         0.952576339
     0.891410172         0.445614487         0.628376305
     0.893201232         0.778264642         0.294963181
     0.889877379         0.782446802         0.961162210
     0.891624391         0.781168103         0.626077712
