Al2 N2                                  
   1.0000000000000000     
     9.2872018813999997    0.0000000000000000    0.0000000000000000
    -4.6436029654000004    8.0429537929000006    0.0000000000000000
     0.0000000000000000    0.0000000000000000    9.9090690613000003
   Si   Al   N 
     2    33    36
Direct
  0.1095891247983662  0.2264561955026993  0.5027017472170221
  0.1095891247983662  0.5497999062956722  0.5027017472170221
  0.1106433895117538  0.2233927660255114  0.0031144322465448
  0.1106433895117538  0.5539176004862479  0.0031144322465448
  0.1093365321129890  0.8880017845564926  0.5028687233958705
  0.1117209568197316  0.8891939969098641  0.0029217058860556
  0.4478619800350619  0.2317852452462235  0.5029356147251477
  0.4450476241280922  0.2229872842638098  0.0021824828432873
  0.4444123636294369  0.5555396593147204  0.9926108645645469
  0.4478619800350619  0.8827437487888360  0.5029356147251477
  0.4450476241280922  0.8887273538642805  0.0021824828432873
  0.7744506602413055  0.2205588221206539  0.5010983188751152
  0.7776266493937803  0.2221468166968914  0.0034319943226318
  0.7729039077613516  0.5566672842269836  0.5022601151900125
  0.7781254282992416  0.5553514489625261  0.0018249377818444
  0.7729039077613516  0.8829036085343673  0.5022601151900125
  0.7781254282992416  0.8894409643367146  0.0018249377818444
  0.2226098190129099  0.1140114013157895  0.2513180710268660
  0.2239261498722393  0.1121342569970250  0.7508676057866340
  0.2258513116801977  0.4462588208400979  0.2560281809059737
  0.2289515682598410  0.4478089491299198  0.7472942836803730
  0.2226098190129099  0.7752647546971160  0.2513180710268660
  0.2239261498722393  0.7784582298752093  0.7508676057866340
  0.5523780234784054  0.1095221837391988  0.2551094428583670
  0.5543344000893398  0.1105003720446661  0.7516035160349622
  0.5555507301578408  0.4463045994765826  0.2556385777574888
  0.5549698118187341  0.4473469876457865  0.7496839850081959
  0.5555507301578408  0.7759124896812555  0.2556385777574888
  0.5549698118187341  0.7742891831729444  0.7496839850081959
  0.8893405283920122  0.1099370165598142  0.2542313399407496
  0.8870707876639029  0.1101190155814913  0.7508091526966940
  0.8893405283920122  0.4460698188321979  0.2542313399407496
  0.8870707876639029  0.4436180790824115  0.7508091526966940
  0.8884762355405675  0.7775712822702849  0.2524935584296477
  0.8888221275848127  0.7777442282924072  0.7526800523149906
  0.1110081948398147  0.2231306329351679  0.1933580170194071
  0.1103098034630625  0.2221293739872233  0.6826365315896860
  0.1110081948398147  0.5545445389046525  0.1933580170194071
  0.1103098034630625  0.5548474064758444  0.6826365315896860
  0.1133955601225498  0.8900312985612734  0.1959189498414631
  0.1124356262248704  0.8895513316124330  0.6925536264254664
  0.4423549096551971  0.2206133063152492  0.1922818905169335
  0.4441094285097977  0.2219807878952426  0.6939619848157027
  0.4431910018516630  0.5549289784258331  0.1883231543462215
  0.4457121802092511  0.5561895676046273  0.7145834517404854
  0.4423549096551970  0.8884086173399460  0.1922818905169335
  0.4441094285097977  0.8887956546145533  0.6939619848157027
  0.7774815884887279  0.2220742862443652  0.1971045064280066
  0.7773583152047048  0.2220126496023538  0.6917882211696498
  0.7808774452821335  0.5571197622747732  0.1916533973139398
  0.7803229448176405  0.5569201793400951  0.6937425501068819
  0.7808774452821335  0.8904246680073593  0.1916533973139398
  0.7803229448176405  0.8900697504775444  0.6937425501068819
  0.2149871426826397  0.1192164896328637  0.4466853661323620
  0.2207834203955119  0.1115277097997552  0.9416324302422582
  0.1897531600653240  0.4282097450326611  0.4447464164579806
  0.2159050739985306  0.4412857019992645  0.9401607582369772
  0.2149871426826397  0.7624369900497713  0.4466853661323620
  0.2207834203955119  0.7759220475957520  0.9416324302422582
  0.5485428260547525  0.1076045850273724  0.4459241271929810
  0.5559324402923637  0.1112993921461780  0.9430788731522565
  0.5677734628204213  0.4362519780118559  0.4366560493254324
  0.5585183437335756  0.4424086099063642  0.9440623207208242
  0.5677734628204213  0.7981878438085622  0.4366560493254324
  0.5585183437335756  0.7827760928272084  0.9440623207208242
  0.8999295149646157  0.1149562906561832  0.4483057301363992
  0.8899499394866878  0.1125733323959866  0.9415591288793710
  0.8999295149646157  0.4516395313084320  0.4483057301363992
  0.8899499394866878  0.4440429140907009  0.9415591288793710
  0.8918473344860243  0.7792568317430131  0.4429336157862309
  0.8905118189655579  0.7785890739827798  0.9432638969144206