Al2 N2                                  
   1.0000000000000000     
     9.2872018813999997    0.0000000000000000    0.0000000000000000
    -4.6436029654000004    8.0429537929000006    0.0000000000000000
     0.0000000000000000    0.0000000000000000    9.9090690613000003
   Si   Al   N 
     2    33    36
Direct
  0.1095357232150663  0.2265082875667126  0.4999937133745653
  0.1095357232150663  0.5496944126483589  0.4999937133745653
  0.1108913801114516  0.2233294883729509  0.0004664265778365
  0.1108913801114516  0.5542288687385062  0.0004664265778365
  0.1093181310338808  0.8879925840169384  0.5001863069321129
  0.1119848044381673  0.8893259207190815  0.0000999692872888
  0.4476767157331861  0.2318216815727558  0.5001979367355665
  0.4452938952708581  0.2231389942370508  0.9998436506264523
  0.4446474876119376  0.5556572213059705  0.9892073407083252
  0.4476767157331861  0.8825220481604278  0.5001979367355665
  0.4452938952708581  0.8888219150338050  0.9998436506264523
  0.7743478493883401  0.2205074166941714  0.4985228177954417
  0.7776835239252873  0.2221752539626451  0.0007784527008954
  0.7727063600732504  0.5564253815366715  0.4995790197487943
  0.7783714225179443  0.5553660846854842  0.9994910785817395
  0.7727063600732504  0.8829479635365785  0.4995790197487943
  0.7783714225179443  0.8896723228324590  0.9994910785817395
  0.2226042756286965  0.1139130994587213  0.2487710230042748
  0.2237332566277912  0.1119638556528703  0.7481018055345153
  0.2259273722219602  0.4462968511109791  0.2532087127762235
  0.2286620640376940  0.4476641970188461  0.7448333258866867
  0.2226042756286965  0.7753575131699704  0.2487710230042748
  0.2237332566277912  0.7784357379749161  0.7481018055345153
  0.5523649451899632  0.1095156445949778  0.2526596776286030
  0.5543605544155633  0.1105134492077778  0.7489196770641259
  0.5554289440840404  0.4465572927821477  0.2531128930734950
  0.5548598876231995  0.4470242552116098  0.7470497762237936
  0.5554289440840404  0.7755380103018898  0.2531128930734950
  0.5548598876231995  0.7745019914115866  0.7470497762237936
  0.8893956302076858  0.1099826625155793  0.2515162087413945
  0.8871945948247694  0.1101298566865393  0.7482259944643784
  0.8893956302076858  0.4460792746921067  0.2515162087413945
  0.8871945948247694  0.4437310451382300  0.7482259944643784
  0.8884160169164866  0.7775411729582442  0.2497534627277241
  0.8884617963012021  0.7775640626506020  0.7498474859468486
  0.1110268258220713  0.2230751402469502  0.1907057538601374
  0.1102848762260817  0.2221113125772203  0.6799567743022730
  0.1110268258220713  0.5546186625751268  0.1907057538601374
  0.1102848762260817  0.5548405406488668  0.6799567743022730
  0.1133952791024877  0.8900311580512422  0.1932158439574935
  0.1121503510635661  0.8894086940317812  0.6899110851972753
  0.4424236830381459  0.2206987334153890  0.1898857637552438
  0.4439760495947029  0.2218488254224953  0.6912571357262112
  0.4432005701296729  0.5549337625648381  0.1853235179128296
  0.4455795491189678  0.5561232520594861  0.7126179896987809
  0.4424236830381459  0.8883919636227553  0.1898857637552438
  0.4439760495947029  0.8887942381722053  0.6912571357262112
  0.7774784683672925  0.2220727261836476  0.1944772132812777
  0.7774618679163950  0.2220644259581987  0.6892375388110031
  0.7807988177462911  0.5570597299731815  0.1892313533757253
  0.7801710297980189  0.5567377041010875  0.6910745888822073
  0.7807988177462911  0.8904060727731086  0.1892313533757253
  0.7801710297980189  0.8901003106969303  0.6910745888822073
  0.2148991831954724  0.1192008859977781  0.4440668461767766
  0.2210683291775781  0.1116417901967232  0.9389232932125088
  0.1898842973880865  0.4282753136940422  0.4420024642533743
  0.2158861704716123  0.4412762502358052  0.9376322409475822
  0.2148991831954724  0.7623646341976895  0.4440668461767766
  0.2210683291775781  0.7760928759808498  0.9389232932125088
  0.5484596634531375  0.1075630037265649  0.4433751619134703
  0.5560197855341048  0.1113430647670486  0.9404945721288324
  0.5675590970592976  0.4364142228666743  0.4341214617223899
  0.5588384215336694  0.4424001158351706  0.9414373517309101
  0.5675590970592976  0.7978112331926205  0.4341214617223899
  0.5588384215336694  0.7831046646984955  0.9414373517309101
  0.8998485877411221  0.1149936427446479  0.4456311545120145
  0.8901308789779370  0.1126411693158572  0.9389904466497636
  0.8998485877411221  0.4515212519964736  0.4456311545120145
  0.8901308789779370  0.4441560166620795  0.9389904466497636
  0.8917659205600680  0.7792161247800350  0.4403056091450227
  0.8906632187574073  0.7786647738787045  0.9406200091128832